&CONTROL
  calculation='scf'
  pseudo_dir = 'pseudo',
  disk_io = "none"
  tstress = .true.
  tprnfor = .true.
 /
&SYSTEM
  ibrav=0,
  nat=12,
  ntyp=2,
  ecutwfc=80,
  ecutrho=800,
  occupations='smearing',
  smearing='mp',
  degauss=0.003,
 /
&ELECTRONS
  conv_thr =  1d-10
  mixing_beta = 0.7
 /
ATOMIC_SPECIES
  Zr      91.22      Zr.pbe-spn-kjpaw_psl.1.0.0.UPF
  Te      127.60     Te.pbe-n-kjpaw_psl.1.0.0.UPF
ATOMIC_POSITIONS {angstrom}
Zr 0.0000000000 4.9428206619 3.4625232903 
Zr 2.0244523166 3.0335346483 10.3875698700 
Te 2.0244523166 2.7497939921 3.4625232903 
Te 0.0000000000 5.2265613182 10.3875698700 
Te 2.0244523166 6.6828709866 2.0869954083 
Te -0.0000000000 1.2934843236 11.7630977511 
Te 2.0244523166 6.6828709866 4.8380511714 
Te -0.0000000000 1.2934843236 9.0120419880 
Te 0.0000000000 3.4858630424 6.0829410363 
Te 2.0244523166 4.4904922679 7.7671521231 
Te 0.0000000000 3.4858630424 0.8421055434 
Te 2.0244523166 4.4904922679 13.0079876160 
K_POINTS {automatic}
  8 8 4  0 0 0
CELL_PARAMETERS {angstrom}
2.02445231251649 -7.97635530939545 0.00000000000000
2.02445231251649 7.97635530939545 0.00000000000000
0.00000000000000 0.00000000000000 13.85009315609958
