&CONTROL
  calculation='scf'
  pseudo_dir = 'pseudo',
  disk_io = "none"
  tstress = .true.
  tprnfor = .true.
 /
&SYSTEM
  ibrav=0,
  nat=12,
  ntyp=2,
  ecutwfc=80,
  ecutrho=800,
  occupations='smearing',
  smearing='mp',
  degauss=0.003,
 /
&ELECTRONS
  conv_thr =  1d-10
  mixing_beta = 0.7
 /
ATOMIC_SPECIES
  Zr      91.22      Zr.pbe-spn-kjpaw_psl.1.0.0.UPF
  Te      127.60     Te.pbe-n-kjpaw_psl.1.0.0.UPF
ATOMIC_POSITIONS {angstrom}
Zr 0.0000000000 4.9412270429 3.4625232903 
Zr 2.0244523166 3.0351282673 10.3875698700 
Te 2.0244523166 2.7497619662 3.4625232903 
Te 0.0000000000 5.2265933440 10.3875698700 
Te 2.0244523166 6.6835964001 2.0874905750 
Te -0.0000000000 1.2927589102 11.7626025844 
Te 2.0244523166 6.6835964001 4.8375560047 
Te -0.0000000000 1.2927589102 9.0125371547 
Te -0.0000000000 3.4886548078 6.0856045810 
Te 2.0244523166 4.4877005024 7.7644885784 
Te 0.0000000000 3.4886548078 0.8394419987 
Te 2.0244523166 4.4877005024 13.0106511607 
K_POINTS {automatic}
  8 8 4  0 0 0
CELL_PARAMETERS {angstrom}
2.02445231251649 -7.97635530939545 0.00000000000000
2.02445231251649 7.97635530939545 0.00000000000000
0.00000000000000 0.00000000000000 13.85009315609958
