&CONTROL
  calculation='scf'
  pseudo_dir = 'pseudo',
  disk_io = "none"
  tstress = .true.
  tprnfor = .true.
 /
&SYSTEM
  ibrav=0,
  nat=12,
  ntyp=2,
  ecutwfc=80,
  ecutrho=800,
  occupations='smearing',
  smearing='mp',
  degauss=0.003,
 /
&ELECTRONS
  conv_thr =  1d-10
  mixing_beta = 0.7
 /
ATOMIC_SPECIES
  Zr      91.22      Zr.pbe-spn-kjpaw_psl.1.0.0.UPF
  Te      127.60     Te.pbe-n-kjpaw_psl.1.0.0.UPF
ATOMIC_POSITIONS {angstrom}
Zr 0.0000000000 4.9444142809 3.4625232903 
Zr 2.0244523166 3.0319410293 10.3875698700 
Te 2.0244523166 2.7498260179 3.4625232903 
Te 0.0000000000 5.2265292923 10.3875698700 
Te 2.0244523166 6.6821455732 2.0865002416 
Te -0.0000000000 1.2942097370 11.7635929178 
Te 2.0244523166 6.6821455732 4.8385463381 
Te -0.0000000000 1.2942097370 9.0115468213 
Te 0.0000000000 3.4830712769 6.0802774917 
Te 2.0244523166 4.4932840333 7.7698156677 
Te 0.0000000000 3.4830712769 0.8447690880 
Te 2.0244523166 4.4932840333 13.0053240714 
K_POINTS {automatic}
  8 8 4  0 0 0
CELL_PARAMETERS {angstrom}
2.02445231251649 -7.97635530939545 0.00000000000000
2.02445231251649 7.97635530939545 0.00000000000000
0.00000000000000 0.00000000000000 13.85009315609958
