&CONTROL
  calculation='scf'
  pseudo_dir = 'pseudo',
  disk_io = "none"
  tstress = .true.
  tprnfor = .true.
 /
&SYSTEM
  ibrav=0,
  nat=12,
  ntyp=2,
  ecutwfc=80,
  ecutrho=800,
  occupations='smearing',
  smearing='mp',
  degauss=0.003,
 /
&ELECTRONS
  conv_thr =  1d-10
  mixing_beta = 0.7
 /
ATOMIC_SPECIES
  Zr      91.22      Zr.pbe-spn-kjpaw_psl.1.0.0.UPF
  Te      127.60     Te.pbe-n-kjpaw_psl.1.0.0.UPF
ATOMIC_POSITIONS {angstrom}
Zr 0.0000000000 4.9380398050 3.4625232903 
Zr 2.0244523166 3.0383155052 10.3875698700 
Te 2.0244523166 2.7496979144 3.4625232903 
Te 0.0000000000 5.2266573958 10.3875698700 
Te 2.0244523166 6.6850472270 2.0884809083 
Te -0.0000000000 1.2913080833 11.7616122510 
Te 2.0244523166 6.6850472270 4.8365656713 
Te -0.0000000000 1.2913080833 9.0135274880 
Te -0.0000000000 3.4942383388 6.0909316702 
Te 2.0244523166 4.4821169714 7.7591614892 
Te -0.0000000000 3.4942383388 0.8341149095 
Te 2.0244523166 4.4821169714 13.0159782499 
K_POINTS {automatic}
  8 8 4  0 0 0
CELL_PARAMETERS {angstrom}
2.02445231251649 -7.97635530939545 0.00000000000000
2.02445231251649 7.97635530939545 0.00000000000000
0.00000000000000 0.00000000000000 13.85009315609958
