&CONTROL
  calculation='scf'
  pseudo_dir = 'pseudo',
  disk_io = "none"
  tstress = .true.
  tprnfor = .true.
 /
&SYSTEM
  ibrav=0,
  nat=12,
  ntyp=2,
  ecutwfc=80,
  ecutrho=800,
  occupations='smearing',
  smearing='mp',
  degauss=0.003,
 /
&ELECTRONS
  conv_thr =  1d-10
  mixing_beta = 0.7
 /
ATOMIC_SPECIES
  Zr      91.22      Zr.pbe-spn-kjpaw_psl.1.0.0.UPF
  Te      127.60     Te.pbe-n-kjpaw_psl.1.0.0.UPF
ATOMIC_POSITIONS {angstrom}
Zr 0.0000000000 4.9476015189 3.4625232903 
Zr 2.0244523166 3.0287537913 10.3875698700 
Te 2.0244523166 2.7498900697 3.4625232903 
Te 0.0000000000 5.2264652405 10.3875698700 
Te 2.0244523166 6.6806947463 2.0855099083 
Te -0.0000000000 1.2956605639 11.7645832511 
Te 2.0244523166 6.6806947463 4.8395366714 
Te -0.0000000000 1.2956605639 9.0105564880 
Te 0.0000000000 3.4774877459 6.0749504024 
Te 2.0244523166 4.4988675643 7.7751427570 
Te -0.0000000000 3.4774877459 0.8500961773 
Te 2.0244523166 4.4988675643 12.9999969821 
K_POINTS {automatic}
  8 8 4  0 0 0
CELL_PARAMETERS {angstrom}
2.02445231251649 -7.97635530939545 0.00000000000000
2.02445231251649 7.97635530939545 0.00000000000000
0.00000000000000 0.00000000000000 13.85009315609958
