&CONTROL
  calculation='scf'
  pseudo_dir = 'pseudo',
  disk_io = "none"
  tstress = .true.
  tprnfor = .true.
 /
&SYSTEM
  ibrav=0,
  nat=12,
  ntyp=2,
  ecutwfc=80,
  ecutrho=800,
  occupations='smearing',
  smearing='mp',
  degauss=0.003,
 /
&ELECTRONS
  conv_thr =  1d-10
  mixing_beta = 0.7
 /
ATOMIC_SPECIES
  Zr      91.22      Zr.pbe-spn-kjpaw_psl.1.0.0.UPF
  Te      127.60     Te.pbe-n-kjpaw_psl.1.0.0.UPF
ATOMIC_POSITIONS {angstrom}
Zr 0.0000000000 4.9316653290 3.4625232903 
Zr 2.0244523166 3.0446899812 10.3875698700 
Te 2.0244523166 2.7495698109 3.4625232903 
Te 0.0000000000 5.2267854993 10.3875698700 
Te 2.0244523166 6.6879488807 2.0904615751 
Te -0.0000000000 1.2884064295 11.7596315843 
Te 2.0244523166 6.6879488807 4.8345850046 
Te -0.0000000000 1.2884064295 9.0155081548 
Te -0.0000000000 3.5054054007 6.1015858488 
Te 2.0244523166 4.4709499095 7.7485073106 
Te -0.0000000000 3.5054054007 0.8234607309 
Te 2.0244523166 4.4709499095 13.0266324285 
K_POINTS {automatic}
  8 8 4  0 0 0
CELL_PARAMETERS {angstrom}
2.02445231251649 -7.97635530939545 0.00000000000000
2.02445231251649 7.97635530939545 0.00000000000000
0.00000000000000 0.00000000000000 13.85009315609958
