&CONTROL
  calculation='scf'
  pseudo_dir = 'pseudo',
  disk_io = "none"
  tstress = .true.
  tprnfor = .true.
 /
&SYSTEM
  ibrav=0,
  nat=12,
  ntyp=2,
  ecutwfc=80,
  ecutrho=800,
  occupations='smearing',
  smearing='mp',
  degauss=0.003,
 /
&ELECTRONS
  conv_thr =  1d-10
  mixing_beta = 0.7
 /
ATOMIC_SPECIES
  Zr      91.22      Zr.pbe-spn-kjpaw_psl.1.0.0.UPF
  Te      127.60     Te.pbe-n-kjpaw_psl.1.0.0.UPF
ATOMIC_POSITIONS {angstrom}
Zr 0.0000000000 4.9173227582 3.4625232903 
Zr 2.0244523166 3.0590325521 10.3875698700 
Te 2.0244523166 2.7492815781 3.4625232903 
Te 0.0000000000 5.2270737321 10.3875698700 
Te 2.0244523166 6.6944776018 2.0949180752 
Te -0.0000000000 1.2818777085 11.7551750842 
Te 2.0244523166 6.6944776018 4.8301285045 
Te -0.0000000000 1.2818777085 9.0199646548 
Te -0.0000000000 3.5305312900 6.1255577505 
Te 2.0244523166 4.4458240202 7.7245354089 
Te -0.0000000000 3.5305312900 0.7994888292 
Te 2.0244523166 4.4458240202 13.0506043302 
K_POINTS {automatic}
  8 8 4  0 0 0
CELL_PARAMETERS {angstrom}
2.02445231251649 -7.97635530939545 0.00000000000000
2.02445231251649 7.97635530939545 0.00000000000000
0.00000000000000 0.00000000000000 13.85009315609958
