&CONTROL
  calculation='scf'
  pseudo_dir = 'pseudo',
  disk_io = "none"
  tstress = .true.
  tprnfor = .true.
 /
&SYSTEM
  ibrav=0,
  nat=12,
  ntyp=2,
  ecutwfc=80,
  ecutrho=800,
  occupations='smearing',
  smearing='mp',
  degauss=0.003,
 /
&ELECTRONS
  conv_thr =  1d-10
  mixing_beta = 0.7
 /
ATOMIC_SPECIES
  Zr      91.22      Zr.pbe-spn-kjpaw_psl.1.0.0.UPF
  Te      127.60     Te.pbe-n-kjpaw_psl.1.0.0.UPF
ATOMIC_POSITIONS {angstrom}
Zr 0.0000000000 4.9205099961 3.4625232903 
Zr 2.0244523166 3.0558453141 10.3875698700 
Te 2.0244523166 2.7493456298 3.4625232903 
Te -0.0000000000 5.2270096804 10.3875698700 
Te 2.0244523166 6.6930267749 2.0939277418 
Te -0.0000000000 1.2833285353 11.7561654176 
Te 2.0244523166 6.6930267749 4.8311188379 
Te -0.0000000000 1.2833285353 9.0189743215 
Te -0.0000000000 3.5249477591 6.1202306612 
Te 2.0244523166 4.4514075511 7.7298624982 
Te -0.0000000000 3.5249477591 0.8048159185 
Te 2.0244523166 4.4514075511 13.0452772409 
K_POINTS {automatic}
  8 8 4  0 0 0
CELL_PARAMETERS {angstrom}
2.02445231251649 -7.97635530939545 0.00000000000000
2.02445231251649 7.97635530939545 0.00000000000000
0.00000000000000 0.00000000000000 13.85009315609958
