&CONTROL
  calculation='scf'
  pseudo_dir = 'pseudo',
  disk_io = "none"
  tstress = .true.
  tprnfor = .true.
 /
&SYSTEM
  ibrav=0,
  nat=12,
  ntyp=2,
  ecutwfc=80,
  ecutrho=800,
  occupations='smearing',
  smearing='mp',
  degauss=0.003,
 /
&ELECTRONS
  conv_thr =  1d-10
  mixing_beta = 0.7
 /
ATOMIC_SPECIES
  Zr      91.22      Zr.pbe-spn-kjpaw_psl.1.0.0.UPF
  Te      127.60     Te.pbe-n-kjpaw_psl.1.0.0.UPF
ATOMIC_POSITIONS {angstrom}
Zr 0.0000000000 5.0256888492 3.4625232903 
Zr 2.0244523166 2.9506664610 10.3875698700 
Te 2.0244523166 2.7514593375 3.4625232903 
Te 0.0000000000 5.2248959728 10.3875698700 
Te 2.0244523166 6.6451494874 2.0612467411 
Te 0.0000000000 1.3312058228 11.7888464183 
Te 2.0244523166 6.6451494874 4.8637998386 
Te 0.0000000000 1.3312058228 8.9862933208 
Te 0.0000000000 3.3406912374 5.9444367152 
Te 2.0244523166 4.6356640728 7.9056564442 
Te 0.0000000000 3.3406912374 0.9806098645 
Te 2.0244523166 4.6356640728 12.8694832949 
K_POINTS {automatic}
  8 8 4  0 0 0
CELL_PARAMETERS {angstrom}
2.02445231251649 -7.97635530939545 0.00000000000000
2.02445231251649 7.97635530939545 0.00000000000000
0.00000000000000 0.00000000000000 13.85009315609958
