&CONTROL
  calculation='scf'
  pseudo_dir = 'pseudo',
  disk_io = "none"
  tstress = .true.
  tprnfor = .true.
 /
&SYSTEM
  ibrav=0,
  nat=12,
  ntyp=2,
  ecutwfc=80,
  ecutrho=800,
  occupations='smearing',
  smearing='mp',
  degauss=0.003,
 /
&ELECTRONS
  conv_thr =  1d-10
  mixing_beta = 0.7
 /
ATOMIC_SPECIES
  Zr      91.22      Zr.pbe-spn-kjpaw_psl.1.0.0.UPF
  Te      127.60     Te.pbe-n-kjpaw_psl.1.0.0.UPF
ATOMIC_POSITIONS {angstrom}
Zr 0.0000000000 5.0352505631 3.4625232903 
Zr 2.0244523166 2.9411047471 10.3875698700 
Te 2.0244523166 2.7516514927 3.4625232903 
Te 0.0000000000 5.2247038175 10.3875698700 
Te 2.0244523166 6.6407970067 2.0582757410 
Te 0.0000000000 1.3355583035 11.7918174184 
Te 2.0244523166 6.6407970067 4.8667708387 
Te 0.0000000000 1.3355583035 8.9833223207 
Te 0.0000000000 3.3239406445 5.9284554474 
Te 2.0244523166 4.6524146657 7.9216377120 
Te 0.0000000000 3.3239406445 0.9965911323 
Te 2.0244523166 4.6524146657 12.8535020271 
K_POINTS {automatic}
  8 8 4  0 0 0
CELL_PARAMETERS {angstrom}
2.02445231251649 -7.97635530939545 0.00000000000000
2.02445231251649 7.97635530939545 0.00000000000000
0.00000000000000 0.00000000000000 13.85009315609958
