&CONTROL
  calculation='scf'
  pseudo_dir = 'pseudo',
  disk_io = "none"
  tstress = .true.
  tprnfor = .true.
 /
&SYSTEM
  ibrav=0,
  nat=12,
  ntyp=2,
  ecutwfc=80,
  ecutrho=800,
  occupations='smearing',
  smearing='mp',
  degauss=0.003,
 /
&ELECTRONS
  conv_thr =  1d-10
  mixing_beta = 0.7
 /
ATOMIC_SPECIES
  Zr      91.22      Zr.pbe-spn-kjpaw_psl.1.0.0.UPF
  Te      127.60     Te.pbe-n-kjpaw_psl.1.0.0.UPF
ATOMIC_POSITIONS {angstrom}
Zr 0.0000000000 5.0129398973 3.4625232903 
Zr 2.0244523166 2.9634154129 10.3875698700 
Te 2.0244523166 2.7512031305 3.4625232903 
Te 0.0000000000 5.2251521797 10.3875698700 
Te 2.0244523166 6.6509527950 2.0652080745 
Te 0.0000000000 1.3254025152 11.7848850849 
Te 2.0244523166 6.6509527950 4.8598385052 
Te 0.0000000000 1.3254025152 8.9902546542 
Te 0.0000000000 3.3630253612 5.9657450723 
Te 2.0244523166 4.6133299490 7.8843480871 
Te 0.0000000000 3.3630253612 0.9593015074 
Te 2.0244523166 4.6133299490 12.8907916520 
K_POINTS {automatic}
  8 8 4  0 0 0
CELL_PARAMETERS {angstrom}
2.02445231251649 -7.97635530939545 0.00000000000000
2.02445231251649 7.97635530939545 0.00000000000000
0.00000000000000 0.00000000000000 13.85009315609958
