&CONTROL
  calculation='scf'
  pseudo_dir = 'pseudo',
  disk_io = "none"
  tstress = .true.
  tprnfor = .true.
 /
&SYSTEM
  ibrav=0,
  nat=12,
  ntyp=2,
  ecutwfc=80,
  ecutrho=800,
  occupations='smearing',
  smearing='mp',
  degauss=0.003,
 /
&ELECTRONS
  conv_thr =  1d-10
  mixing_beta = 0.7
 /
ATOMIC_SPECIES
  Zr      91.22      Zr.pbe-spn-kjpaw_psl.1.0.0.UPF
  Te      127.60     Te.pbe-n-kjpaw_psl.1.0.0.UPF
ATOMIC_POSITIONS {angstrom}
Zr 0.0000000000 4.9985973264 3.4625232903 
Zr 2.0244523166 2.9777579838 10.3875698700 
Te 2.0244523166 2.7509148976 3.4625232903 
Te 0.0000000000 5.2254404126 10.3875698700 
Te 2.0244523166 6.6574815160 2.0696645746 
Te 0.0000000000 1.3188737942 11.7804285848 
Te 2.0244523166 6.6574815160 4.8553820051 
Te 0.0000000000 1.3188737942 8.9947111543 
Te 0.0000000000 3.3881512505 5.9897169740 
Te 2.0244523166 4.5882040597 7.8603761854 
Te 0.0000000000 3.3881512505 0.9353296057 
Te 2.0244523166 4.5882040597 12.9147635537 
K_POINTS {automatic}
  8 8 4  0 0 0
CELL_PARAMETERS {angstrom}
2.02445231251649 -7.97635530939545 0.00000000000000
2.02445231251649 7.97635530939545 0.00000000000000
0.00000000000000 0.00000000000000 13.85009315609958
