&CONTROL
  calculation='scf'
  pseudo_dir = 'pseudo',
  disk_io = "none"
  tstress = .true.
  tprnfor = .true.
 /
&SYSTEM
  ibrav=0,
  nat=12,
  ntyp=2,
  ecutwfc=80,
  ecutrho=800,
  occupations='smearing',
  smearing='mp',
  degauss=0.003,
 /
&ELECTRONS
  conv_thr =  1d-10
  mixing_beta = 0.7
 /
ATOMIC_SPECIES
  Zr      91.22      Zr.pbe-spn-kjpaw_psl.1.0.0.UPF
  Te      127.60     Te.pbe-n-kjpaw_psl.1.0.0.UPF
ATOMIC_POSITIONS {angstrom}
Zr 0.0000000000 5.0591548479 3.4625232903 
Zr 2.0244523166 2.9172004623 10.3875698700 
Te 2.0244523166 2.7521318808 3.4625232903 
Te 0.0000000000 5.2242234294 10.3875698700 
Te 2.0244523166 6.6299158050 2.0508482409 
Te 0.0000000000 1.3464395052 11.7992449185 
Te 2.0244523166 6.6299158050 4.8741983388 
Te 0.0000000000 1.3464395052 8.9758948205 
Te 0.0000000000 3.2820641623 5.8885022778 
Te 2.0244523166 4.6942911479 7.9615908816 
Te 0.0000000000 3.2820641623 1.0365443019 
Te 2.0244523166 4.6942911479 12.8135488575 
K_POINTS {automatic}
  8 8 4  0 0 0
CELL_PARAMETERS {angstrom}
2.02445231251649 -7.97635530939545 0.00000000000000
2.02445231251649 7.97635530939545 0.00000000000000
0.00000000000000 0.00000000000000 13.85009315609958
