&CONTROL
  calculation='scf'
  pseudo_dir = 'pseudo',
  disk_io = "none"
  tstress = .true.
  tprnfor = .true.
 /
&SYSTEM
  ibrav=0,
  nat=12,
  ntyp=2,
  ecutwfc=80,
  ecutrho=800,
  occupations='smearing',
  smearing='mp',
  degauss=0.003,
 /
&ELECTRONS
  conv_thr =  1d-10
  mixing_beta = 0.7
 /
ATOMIC_SPECIES
  Zr      91.22      Zr.pbe-spn-kjpaw_psl.1.0.0.UPF
  Te      127.60     Te.pbe-n-kjpaw_psl.1.0.0.UPF
ATOMIC_POSITIONS {angstrom}
Zr 0.0000000000 5.0623420859 3.4625232903 
Zr 2.0244523166 2.9140132244 10.3875698700 
Te 2.0244523166 2.7521959325 3.4625232903 
Te 0.0000000000 5.2241593777 10.3875698700 
Te 2.0244523166 6.6284649781 2.0498579075 
Te 0.0000000000 1.3478903321 11.8002352519 
Te 2.0244523166 6.6284649781 4.8751886722 
Te 0.0000000000 1.3478903321 8.9749044872 
Te 0.0000000000 3.2764806313 5.8831751885 
Te 2.0244523166 4.6998746789 7.9669179708 
Te 0.0000000000 3.2764806313 1.0418713912 
Te 2.0244523166 4.6998746789 12.8082217682 
K_POINTS {automatic}
  8 8 4  0 0 0
CELL_PARAMETERS {angstrom}
2.02445231251649 -7.97635530939545 0.00000000000000
2.02445231251649 7.97635530939545 0.00000000000000
0.00000000000000 0.00000000000000 13.85009315609958
