&CONTROL
  calculation='scf'
  pseudo_dir = 'pseudo',
  disk_io = "none"
  tstress = .true.
  tprnfor = .true.
 /
&SYSTEM
  ibrav=0,
  nat=12,
  ntyp=2,
  ecutwfc=80,
  ecutrho=800,
  occupations='smearing',
  smearing='mp',
  degauss=0.003,
 /
&ELECTRONS
  conv_thr =  1d-10
  mixing_beta = 0.7
 /
ATOMIC_SPECIES
  Zr      91.22      Zr.pbe-spn-kjpaw_psl.1.0.0.UPF
  Te      127.60     Te.pbe-n-kjpaw_psl.1.0.0.UPF
ATOMIC_POSITIONS {angstrom}
Zr 0.0000000000 4.9794738986 3.4625232903 
Zr 2.0244523166 2.9968814116 10.3875698700 
Te 2.0244523166 2.7505305871 3.4625232903 
Te 0.0000000000 5.2258247231 10.3875698700 
Te 2.0244523166 6.6661864774 2.0756065747 
Te 0.0000000000 1.3101688329 11.7744865847 
Te 2.0244523166 6.6661864774 4.8494400050 
Te 0.0000000000 1.3101688329 9.0006531544 
Te 0.0000000000 3.4216524363 6.0216795097 
Te 2.0244523166 4.5547028739 7.8284136497 
Te 0.0000000000 3.4216524363 0.9033670700 
Te 2.0244523166 4.5547028739 12.9467260894 
K_POINTS {automatic}
  8 8 4  0 0 0
CELL_PARAMETERS {angstrom}
2.02445231251649 -7.97635530939545 0.00000000000000
2.02445231251649 7.97635530939545 0.00000000000000
0.00000000000000 0.00000000000000 13.85009315609958
