&CONTROL
  calculation='scf'
  pseudo_dir = 'pseudo',
  disk_io = "none"
  tstress = .true.
  tprnfor = .true.
 /
&SYSTEM
  ibrav=0,
  nat=12,
  ntyp=2,
  ecutwfc=80,
  ecutrho=800,
  occupations='smearing',
  smearing='mp',
  degauss=0.003,
 /
&ELECTRONS
  conv_thr =  1d-10
  mixing_beta = 0.7
 /
ATOMIC_SPECIES
  Zr      91.22      Zr.pbe-spn-kjpaw_psl.1.0.0.UPF
  Te      127.60     Te.pbe-n-kjpaw_psl.1.0.0.UPF
ATOMIC_POSITIONS {angstrom}
Zr 0.0000000000 4.9810675176 3.4625232903 
Zr 2.0244523166 2.9952877926 10.3875698700 
Te 2.0244523166 2.7505626130 3.4625232903 
Te 0.0000000000 5.2257926972 10.3875698700 
Te 2.0244523166 6.6654610639 2.0751114081 
Te 0.0000000000 1.3108942463 11.7749817513 
Te 2.0244523166 6.6654610639 4.8499351716 
Te 0.0000000000 1.3108942463 9.0001579877 
Te 0.0000000000 3.4188606708 6.0190159650 
Te 2.0244523166 4.5574946394 7.8310771944 
Te 0.0000000000 3.4188606708 0.9060306147 
Te 2.0244523166 4.5574946394 12.9440625447 
K_POINTS {automatic}
  8 8 4  0 0 0
CELL_PARAMETERS {angstrom}
2.02445231251649 -7.97635530939545 0.00000000000000
2.02445231251649 7.97635530939545 0.00000000000000
0.00000000000000 0.00000000000000 13.85009315609958
