&CONTROL
  calculation='scf'
  pseudo_dir = 'pseudo',
  disk_io = "none"
  tstress = .true.
  tprnfor = .true.
 /
&SYSTEM
  ibrav=0,
  nat=12,
  ntyp=2,
  ecutwfc=80,
  ecutrho=800,
  occupations='smearing',
  smearing='mp',
  degauss=0.003,
 /
&ELECTRONS
  conv_thr =  1d-10
  mixing_beta = 0.7
 /
ATOMIC_SPECIES
  Zr      91.22      Zr.pbe-spn-kjpaw_psl.1.0.0.UPF
  Te      127.60     Te.pbe-n-kjpaw_psl.1.0.0.UPF
ATOMIC_POSITIONS {angstrom}
Zr 0.0000000000 4.9715058037 3.4625232903 
Zr 2.0244523166 3.0048495065 10.3875698700 
Te 2.0244523166 2.7503704578 3.4625232903 
Te 0.0000000000 5.2259848524 10.3875698700 
Te 2.0244523166 6.6698135446 2.0780824081 
Te -0.0000000000 1.3065417656 11.7720107513 
Te 2.0244523166 6.6698135446 4.8469641716 
Te -0.0000000000 1.3065417656 9.0031289878 
Te 0.0000000000 3.4356112637 6.0349972329 
Te 2.0244523166 4.5407440465 7.8150959265 
Te 0.0000000000 3.4356112637 0.8900493468 
Te 2.0244523166 4.5407440465 12.9600438126 
K_POINTS {automatic}
  8 8 4  0 0 0
CELL_PARAMETERS {angstrom}
2.02445231251649 -7.97635530939545 0.00000000000000
2.02445231251649 7.97635530939545 0.00000000000000
0.00000000000000 0.00000000000000 13.85009315609958
