&CONTROL
  calculation='scf'
  pseudo_dir = 'pseudo',
  disk_io = "none"
  tstress = .true.
  tprnfor = .true.
 /
&SYSTEM
  ibrav=0,
  nat=12,
  ntyp=2,
  ecutwfc=80,
  ecutrho=800,
  occupations='smearing',
  smearing='mp',
  degauss=0.003,
 /
&ELECTRONS
  conv_thr =  1d-10
  mixing_beta = 0.7
 /
ATOMIC_SPECIES
  Zr      91.22      Zr.pbe-spn-kjpaw_psl.1.0.0.UPF
  Te      127.60     Te.pbe-n-kjpaw_psl.1.0.0.UPF
ATOMIC_POSITIONS {angstrom}
Zr 0.0000000000 4.9507887569 3.4625232903 
Zr 2.0244523166 3.0255665534 10.3875698700 
Te 2.0244523166 2.7499541214 3.4625232903 
Te 0.0000000000 5.2264011888 10.3875698700 
Te 2.0244523166 6.6792439194 2.0845195749 
Te 0.0000000000 1.2971113908 11.7655735845 
Te 2.0244523166 6.6792439194 4.8405270048 
Te -0.0000000000 1.2971113908 9.0095661546 
Te -0.0000000000 3.4719042150 6.0696233131 
Te 2.0244523166 4.5044510953 7.7804698463 
Te -0.0000000000 3.4719042150 0.8554232666 
Te 2.0244523166 4.5044510953 12.9946698928 
K_POINTS {automatic}
  8 8 4  0 0 0
CELL_PARAMETERS {angstrom}
2.02445231251649 -7.97635530939545 0.00000000000000
2.02445231251649 7.97635530939545 0.00000000000000
0.00000000000000 0.00000000000000 13.85009315609958
