&CONTROL
  calculation='scf'
  pseudo_dir = 'pseudo',
  disk_io = "none"
  tstress = .true.
  tprnfor = .true.
 /
&SYSTEM
  ibrav=0,
  nat=12,
  ntyp=2,
  ecutwfc=80,
  ecutrho=800,
  occupations='smearing',
  smearing='mp',
  degauss=0.003,
 /
&ELECTRONS
  conv_thr =  1d-10
  mixing_beta = 0.7
 /
ATOMIC_SPECIES
  Zr      91.22      Zr.pbe-spn-kjpaw_psl.1.0.0.UPF
  Te      127.60     Te.pbe-n-kjpaw_psl.1.0.0.UPF
ATOMIC_POSITIONS {angstrom}
Zr 0.0000000000 4.9252908531 3.4625232903 
Zr 2.0244523166 3.0510644571 10.3875698700 
Te 2.0244523166 2.7494417074 3.4625232903 
Te 0.0000000000 5.2269136028 10.3875698700 
Te 2.0244523166 6.6908505345 2.0924422418 
Te -0.0000000000 1.2855047757 11.7576509176 
Te 2.0244523166 6.6908505345 4.8326043379 
Te -0.0000000000 1.2855047757 9.0174888215 
Te -0.0000000000 3.5165724626 6.1122400273 
Te 2.0244523166 4.4597828476 7.7378531321 
Te -0.0000000000 3.5165724626 0.8128065524 
Te 2.0244523166 4.4597828476 13.0372866070 
K_POINTS {automatic}
  8 8 4  0 0 0
CELL_PARAMETERS {angstrom}
2.02445231251649 -7.97635530939545 0.00000000000000
2.02445231251649 7.97635530939545 0.00000000000000
0.00000000000000 0.00000000000000 13.85009315609958
