&CONTROL
  calculation='scf'
  pseudo_dir = 'pseudo',
  disk_io = "none"
  tstress = .true.
  tprnfor = .true.
 /
&SYSTEM
  ibrav=0,
  nat=12,
  ntyp=2,
  ecutwfc=80,
  ecutrho=800,
  occupations='smearing',
  smearing='mp',
  degauss=0.003,
 /
&ELECTRONS
  conv_thr =  1d-10
  mixing_beta = 0.7
 /
ATOMIC_SPECIES
  Zr      91.22      Zr.pbe-spn-kjpaw_psl.1.0.0.UPF
  Te      127.60     Te.pbe-n-kjpaw_psl.1.0.0.UPF
ATOMIC_POSITIONS {angstrom}
Zr -0.0000000000 4.9221036151 3.4625232903 
Zr 2.0244523166 3.0542516951 10.3875698700 
Te 2.0244523166 2.7493776557 3.4625232903 
Te -0.0000000000 5.2269776545 10.3875698700 
Te 2.0244523166 6.6923013614 2.0934325751 
Te -0.0000000000 1.2840539488 11.7566605843 
Te 2.0244523166 6.6923013614 4.8316140046 
Te -0.0000000000 1.2840539488 9.0184791548 
Te -0.0000000000 3.5221559936 6.1175671166 
Te 2.0244523166 4.4541993166 7.7325260428 
Te -0.0000000000 3.5221559936 0.8074794631 
Te 2.0244523166 4.4541993166 13.0426136963 
K_POINTS {automatic}
  8 8 4  0 0 0
CELL_PARAMETERS {angstrom}
2.02445231251649 -7.97635530939545 0.00000000000000
2.02445231251649 7.97635530939545 0.00000000000000
0.00000000000000 0.00000000000000 13.85009315609958
