&CONTROL
  calculation='scf'
  pseudo_dir = 'pseudo',
  disk_io = "none"
  tstress = .true.
  tprnfor = .true.
 /
&SYSTEM
  ibrav=0,
  nat=12,
  ntyp=2,
  ecutwfc=80,
  ecutrho=800,
  occupations='smearing',
  smearing='mp',
  degauss=0.003,
 /
&ELECTRONS
  conv_thr =  1d-10
  mixing_beta = 0.7
 /
ATOMIC_SPECIES
  Zr      91.22      Zr.pbe-spn-kjpaw_psl.1.0.0.UPF
  Te      127.60     Te.pbe-n-kjpaw_psl.1.0.0.UPF
ATOMIC_POSITIONS {angstrom}
Zr 0.0000000000 5.0145335163 3.4625232903 
Zr 2.0244523166 2.9618217939 10.3875698700 
Te 2.0244523166 2.7512351563 3.4625232903 
Te 0.0000000000 5.2251201539 10.3875698700 
Te 2.0244523166 6.6502273815 2.0647129078 
Te 0.0000000000 1.3261279287 11.7853802516 
Te 2.0244523166 6.6502273815 4.8603336719 
Te 0.0000000000 1.3261279287 8.9897594875 
Te 0.0000000000 3.3602335957 5.9630815277 
Te 2.0244523166 4.6161217145 7.8870116317 
Te 0.0000000000 3.3602335957 0.9619650520 
Te 2.0244523166 4.6161217145 12.8881281073 
K_POINTS {automatic}
  8 8 4  0 0 0
CELL_PARAMETERS {angstrom}
2.02445231251649 -7.97635530939545 0.00000000000000
2.02445231251649 7.97635530939545 0.00000000000000
0.00000000000000 0.00000000000000 13.85009315609958
