&CONTROL
  calculation='scf'
  pseudo_dir = 'pseudo',
  disk_io = "none"
  tstress = .true.
  tprnfor = .true.
 /
&SYSTEM
  ibrav=0,
  nat=12,
  ntyp=2,
  ecutwfc=80,
  ecutrho=800,
  occupations='smearing',
  smearing='mp',
  degauss=0.003,
 /
&ELECTRONS
  conv_thr =  1d-10
  mixing_beta = 0.7
 /
ATOMIC_SPECIES
  Zr      91.22      Zr.pbe-spn-kjpaw_psl.1.0.0.UPF
  Te      127.60     Te.pbe-n-kjpaw_psl.1.0.0.UPF
ATOMIC_POSITIONS {angstrom}
Zr 0.0000000000 5.0225016112 3.4625232903 
Zr 2.0244523166 2.9538536990 10.3875698700 
Te 2.0244523166 2.7513952857 3.4625232903 
Te 0.0000000000 5.2249600245 10.3875698700 
Te 2.0244523166 6.6466003143 2.0622370744 
Te 0.0000000000 1.3297549959 11.7878560850 
Te 2.0244523166 6.6466003143 4.8628095053 
Te 0.0000000000 1.3297549959 8.9872836541 
Te 0.0000000000 3.3462747683 5.9497638045 
Te 2.0244523166 4.6300805419 7.9003293549 
Te 0.0000000000 3.3462747683 0.9752827752 
Te 2.0244523166 4.6300805419 12.8748103842 
K_POINTS {automatic}
  8 8 4  0 0 0
CELL_PARAMETERS {angstrom}
2.02445231251649 -7.97635530939545 0.00000000000000
2.02445231251649 7.97635530939545 0.00000000000000
0.00000000000000 0.00000000000000 13.85009315609958
