&CONTROL
  calculation='scf'
  pseudo_dir = 'pseudo',
  disk_io = "none"
  tstress = .true.
  tprnfor = .true.
 /
&SYSTEM
  ibrav=0,
  nat=12,
  ntyp=2,
  ecutwfc=80,
  ecutrho=800,
  occupations='smearing',
  smearing='mp',
  degauss=0.003,
 /
&ELECTRONS
  conv_thr =  1d-10
  mixing_beta = 0.7
 /
ATOMIC_SPECIES
  Zr      91.22      Zr.pbe-spn-kjpaw_psl.1.0.0.UPF
  Te      127.60     Te.pbe-n-kjpaw_psl.1.0.0.UPF
ATOMIC_POSITIONS {angstrom}
Zr 0.0000000000 5.0384378011 3.4625232903 
Zr 2.0244523166 2.9379175091 10.3875698700 
Te 2.0244523166 2.7517155444 3.4625232903 
Te 0.0000000000 5.2246397658 10.3875698700 
Te 2.0244523166 6.6393461798 2.0572854077 
Te 0.0000000000 1.3370091304 11.7928077517 
Te 2.0244523166 6.6393461798 4.8677611720 
Te 0.0000000000 1.3370091304 8.9823319874 
Te 0.0000000000 3.3183571135 5.9231283581 
Te 2.0244523166 4.6579981967 7.9269648013 
Te 0.0000000000 3.3183571135 1.0019182216 
Te 2.0244523166 4.6579981967 12.8481749378 
K_POINTS {automatic}
  8 8 4  0 0 0
CELL_PARAMETERS {angstrom}
2.02445231251649 -7.97635530939545 0.00000000000000
2.02445231251649 7.97635530939545 0.00000000000000
0.00000000000000 0.00000000000000 13.85009315609958
