&CONTROL
  calculation='scf'
  pseudo_dir = 'pseudo',
  disk_io = "none"
  tstress = .true.
  tprnfor = .true.
 /
&SYSTEM
  ibrav=0,
  nat=12,
  ntyp=2,
  ecutwfc=80,
  ecutrho=800,
  occupations='smearing',
  smearing='mp',
  degauss=0.003,
 /
&ELECTRONS
  conv_thr =  1d-10
  mixing_beta = 0.7
 /
ATOMIC_SPECIES
  Zr      91.22      Zr.pbe-spn-kjpaw_psl.1.0.0.UPF
  Te      127.60     Te.pbe-n-kjpaw_psl.1.0.0.UPF
ATOMIC_POSITIONS {angstrom}
Zr 0.0000000000 5.0464058960 3.4625232903 
Zr 2.0244523166 2.9299494142 10.3875698700 
Te 2.0244523166 2.7518756738 3.4625232903 
Te 0.0000000000 5.2244796364 10.3875698700 
Te 2.0244523166 6.6357191126 2.0548095743 
Te 0.0000000000 1.3406361976 11.7952835851 
Te 2.0244523166 6.6357191126 4.8702370054 
Te 0.0000000000 1.3406361976 8.9798561540 
Te 0.0000000000 3.3043982861 5.9098106349 
Te 2.0244523166 4.6719570241 7.9402825245 
Te 0.0000000000 3.3043982861 1.0152359448 
Te 2.0244523166 4.6719570241 12.8348572146 
K_POINTS {automatic}
  8 8 4  0 0 0
CELL_PARAMETERS {angstrom}
2.02445231251649 -7.97635530939545 0.00000000000000
2.02445231251649 7.97635530939545 0.00000000000000
0.00000000000000 0.00000000000000 13.85009315609958
