&CONTROL
  calculation='scf'
  pseudo_dir = 'pseudo',
  disk_io = "none"
  tstress = .true.
  tprnfor = .true.
 /
&SYSTEM
  ibrav=0,
  nat=12,
  ntyp=2,
  ecutwfc=80,
  ecutrho=800,
  occupations='smearing',
  smearing='mp',
  degauss=0.003,
 /
&ELECTRONS
  conv_thr =  1d-10
  mixing_beta = 0.7
 /
ATOMIC_SPECIES
  Zr      91.22      Zr.pbe-spn-kjpaw_psl.1.0.0.UPF
  Te      127.60     Te.pbe-n-kjpaw_psl.1.0.0.UPF
ATOMIC_POSITIONS {angstrom}
Zr 0.0000000000 5.0543739909 3.4625232903 
Zr 2.0244523166 2.9219813193 10.3875698700 
Te 2.0244523166 2.7520358032 3.4625232903 
Te 0.0000000000 5.2243195070 10.3875698700 
Te 2.0244523166 6.6320920454 2.0523337409 
Te 0.0000000000 1.3442632648 11.7977594185 
Te 2.0244523166 6.6320920454 4.8727128388 
Te 0.0000000000 1.3442632648 8.9773803206 
Te 0.0000000000 3.2904394587 5.8964929117 
Te 2.0244523166 4.6859158515 7.9536002477 
Te 0.0000000000 3.2904394587 1.0285536680 
Te 2.0244523166 4.6859158515 12.8215394914 
K_POINTS {automatic}
  8 8 4  0 0 0
CELL_PARAMETERS {angstrom}
2.02445231251649 -7.97635530939545 0.00000000000000
2.02445231251649 7.97635530939545 0.00000000000000
0.00000000000000 0.00000000000000 13.85009315609958
