&CONTROL
  calculation='scf'
  pseudo_dir = 'pseudo',
  disk_io = "none"
  tstress = .true.
  tprnfor = .true.
 /
&SYSTEM
  ibrav=0,
  nat=12,
  ntyp=2,
  ecutwfc=80,
  ecutrho=800,
  occupations='smearing',
  smearing='mp',
  degauss=0.003,
 /
&ELECTRONS
  conv_thr =  1d-10
  mixing_beta = 0.7
 /
ATOMIC_SPECIES
  Zr      91.22      Zr.pbe-spn-kjpaw_psl.1.0.0.UPF
  Te      127.60     Te.pbe-n-kjpaw_psl.1.0.0.UPF
ATOMIC_POSITIONS {angstrom}
Zr 0.0000000000 5.0559676099 3.4625232903 
Zr 2.0244523166 2.9203877003 10.3875698700 
Te 2.0244523166 2.7520678291 3.4625232903 
Te 0.0000000000 5.2242874812 10.3875698700 
Te 2.0244523166 6.6313666319 2.0518385742 
Te 0.0000000000 1.3449886783 11.7982545852 
Te 2.0244523166 6.6313666319 4.8732080055 
Te 0.0000000000 1.3449886783 8.9768851539 
Te 0.0000000000 3.2876476932 5.8938293671 
Te 2.0244523166 4.6887076170 7.9562637923 
Te 0.0000000000 3.2876476932 1.0312172126 
Te 2.0244523166 4.6887076170 12.8188759468 
K_POINTS {automatic}
  8 8 4  0 0 0
CELL_PARAMETERS {angstrom}
2.02445231251649 -7.97635530939545 0.00000000000000
2.02445231251649 7.97635530939545 0.00000000000000
0.00000000000000 0.00000000000000 13.85009315609958
