&CONTROL
  calculation='scf'
  pseudo_dir = 'pseudo',
  disk_io = "none"
  tstress = .true.
  tprnfor = .true.
 /
&SYSTEM
  ibrav=0,
  nat=12,
  ntyp=2,
  ecutwfc=80,
  ecutrho=800,
  occupations='smearing',
  smearing='mp',
  degauss=0.003,
 /
&ELECTRONS
  conv_thr =  1d-10
  mixing_beta = 0.7
 /
ATOMIC_SPECIES
  Zr      91.22      Zr.pbe-spn-kjpaw_psl.1.0.0.UPF
  Te      127.60     Te.pbe-n-kjpaw_psl.1.0.0.UPF
ATOMIC_POSITIONS {angstrom}
Zr 0.0000000000 5.0193143732 3.4625232903 
Zr 2.0244523166 2.9570409370 10.3875698700 
Te 2.0244523166 2.7513312340 3.4625232903 
Te 0.0000000000 5.2250240763 10.3875698700 
Te 2.0244523166 6.6480511412 2.0632274078 
Te 0.0000000000 1.3283041690 11.7868657516 
Te 2.0244523166 6.6480511412 4.8618191719 
Te 0.0000000000 1.3283041690 8.9882739875 
Te 0.0000000000 3.3518582993 5.9550908937 
Te 2.0244523166 4.6244970109 7.8950022656 
Te 0.0000000000 3.3518582993 0.9699556860 
Te 2.0244523166 4.6244970109 12.8801374734 
K_POINTS {automatic}
  8 8 4  0 0 0
CELL_PARAMETERS {angstrom}
2.02445231251649 -7.97635530939545 0.00000000000000
2.02445231251649 7.97635530939545 0.00000000000000
0.00000000000000 0.00000000000000 13.85009315609958
