&CONTROL
  calculation='scf'
  pseudo_dir = 'pseudo',
  disk_io = "none"
  tstress = .true.
  tprnfor = .true.
 /
&SYSTEM
  ibrav=0,
  nat=12,
  ntyp=2,
  ecutwfc=80,
  ecutrho=800,
  occupations='smearing',
  smearing='mp',
  degauss=0.003,
 /
&ELECTRONS
  conv_thr =  1d-10
  mixing_beta = 0.7
 /
ATOMIC_SPECIES
  Zr      91.22      Zr.pbe-spn-kjpaw_psl.1.0.0.UPF
  Te      127.60     Te.pbe-n-kjpaw_psl.1.0.0.UPF
ATOMIC_POSITIONS {angstrom}
Zr 0.0000000000 5.0575612289 3.4625232903 
Zr 2.0244523166 2.9187940813 10.3875698700 
Te 2.0244523166 2.7520998549 3.4625232903 
Te 0.0000000000 5.2242554553 10.3875698700 
Te 2.0244523166 6.6306412185 2.0513434075 
Te 0.0000000000 1.3457140917 11.7987497519 
Te 2.0244523166 6.6306412185 4.8737031722 
Te 0.0000000000 1.3457140917 8.9763899872 
Te 0.0000000000 3.2848559278 5.8911658225 
Te 2.0244523166 4.6914993825 7.9589273369 
Te 0.0000000000 3.2848559278 1.0338807572 
Te 2.0244523166 4.6914993825 12.8162124021 
K_POINTS {automatic}
  8 8 4  0 0 0
CELL_PARAMETERS {angstrom}
2.02445231251649 -7.97635530939545 0.00000000000000
2.02445231251649 7.97635530939545 0.00000000000000
0.00000000000000 0.00000000000000 13.85009315609958
