&CONTROL
  calculation='scf'
  pseudo_dir = 'pseudo',
  disk_io = "none"
  tstress = .true.
  tprnfor = .true.
 /
&SYSTEM
  ibrav=0,
  nat=12,
  ntyp=2,
  ecutwfc=80,
  ecutrho=800,
  occupations='smearing',
  smearing='mp',
  degauss=0.003,
 /
&ELECTRONS
  conv_thr =  1d-10
  mixing_beta = 0.7
 /
ATOMIC_SPECIES
  Zr      91.22      Zr.pbe-spn-kjpaw_psl.1.0.0.UPF
  Te      127.60     Te.pbe-n-kjpaw_psl.1.0.0.UPF
ATOMIC_POSITIONS {angstrom}
Zr 0.0000000000 4.9858483745 3.4625232903 
Zr 2.0244523166 2.9905069357 10.3875698700 
Te 2.0244523166 2.7506586906 3.4625232903 
Te 0.0000000000 5.2256966196 10.3875698700 
Te 2.0244523166 6.6632848236 2.0736259080 
Te 0.0000000000 1.3130704866 11.7764672514 
Te 2.0244523166 6.6632848236 4.8514206717 
Te 0.0000000000 1.3130704866 8.9986724877 
Te 0.0000000000 3.4104853744 6.0110253311 
Te 2.0244523166 4.5658699358 7.8390678283 
Te 0.0000000000 3.4104853744 0.9140212486 
Te 2.0244523166 4.5658699358 12.9360719108 
K_POINTS {automatic}
  8 8 4  0 0 0
CELL_PARAMETERS {angstrom}
2.02445231251649 -7.97635530939545 0.00000000000000
2.02445231251649 7.97635530939545 0.00000000000000
0.00000000000000 0.00000000000000 13.85009315609958
