&CONTROL
  calculation='scf'
  pseudo_dir = 'pseudo',
  disk_io = "none"
  tstress = .true.
  tprnfor = .true.
 /
&SYSTEM
  ibrav=0,
  nat=12,
  ntyp=2,
  ecutwfc=80,
  ecutrho=800,
  occupations='smearing',
  smearing='mp',
  degauss=0.003,
 /
&ELECTRONS
  conv_thr =  1d-10
  mixing_beta = 0.7
 /
ATOMIC_SPECIES
  Zr      91.22      Zr.pbe-spn-kjpaw_psl.1.0.0.UPF
  Te      127.60     Te.pbe-n-kjpaw_psl.1.0.0.UPF
ATOMIC_POSITIONS {angstrom}
Zr 0.0000000000 5.0177207543 3.4625232903 
Zr 2.0244523166 2.9586345560 10.3875698700 
Te 2.0244523166 2.7512992081 3.4625232903 
Te 0.0000000000 5.2250561021 10.3875698700 
Te 2.0244523166 6.6487765546 2.0637225745 
Te 0.0000000000 1.3275787556 11.7863705849 
Te 2.0244523166 6.6487765546 4.8613240052 
Te 0.0000000000 1.3275787556 8.9887691542 
Te 0.0000000000 3.3546500648 5.9577544384 
Te 2.0244523166 4.6217052454 7.8923387210 
Te 0.0000000000 3.3546500648 0.9672921413 
Te 2.0244523166 4.6217052454 12.8828010181 
K_POINTS {automatic}
  8 8 4  0 0 0
CELL_PARAMETERS {angstrom}
2.02445231251649 -7.97635530939545 0.00000000000000
2.02445231251649 7.97635530939545 0.00000000000000
0.00000000000000 0.00000000000000 13.85009315609958
