&CONTROL
  calculation='scf'
  pseudo_dir = 'pseudo',
  disk_io = "none"
  tstress = .true.
  tprnfor = .true.
 /
&SYSTEM
  ibrav=0,
  nat=12,
  ntyp=2,
  ecutwfc=80,
  ecutrho=800,
  occupations='smearing',
  smearing='mp',
  degauss=0.003,
 /
&ELECTRONS
  conv_thr =  1d-10
  mixing_beta = 0.7
 /
ATOMIC_SPECIES
  Zr      91.22      Zr.pbe-spn-kjpaw_psl.1.0.0.UPF
  Te      127.60     Te.pbe-n-kjpaw_psl.1.0.0.UPF
ATOMIC_POSITIONS {angstrom}
Zr 0.0000000000 5.0479995150 3.4625232903 
Zr 2.0244523166 2.9283557952 10.3875698700 
Te 2.0244523166 2.7519076997 3.4625232903 
Te 0.0000000000 5.2244476105 10.3875698700 
Te 2.0244523166 6.6349936992 2.0543144076 
Te 0.0000000000 1.3413616111 11.7957787518 
Te 2.0244523166 6.6349936992 4.8707321721 
Te 0.0000000000 1.3413616111 8.9793609873 
Te 0.0000000000 3.3016065206 5.9071470903 
Te 2.0244523166 4.6747487896 7.9429460691 
Te 0.0000000000 3.3016065206 1.0178994894 
Te 2.0244523166 4.6747487896 12.8321936700 
K_POINTS {automatic}
  8 8 4  0 0 0
CELL_PARAMETERS {angstrom}
2.02445231251649 -7.97635530939545 0.00000000000000
2.02445231251649 7.97635530939545 0.00000000000000
0.00000000000000 0.00000000000000 13.85009315609958
