
&CONTROL
  calculation='scf'
  restart_mode='from_scratch',
  prefix='ZrTe5',
  pseudo_dir = '/lscratch/martin/195332/pseudo',
  outdir='/lscratch/martin/195332/tmp',
  tstress = .true.
  tprnfor = .true.
  verbosity='high'
 /
&SYSTEM
  ibrav=0,
  nat=12,
  ntyp=2,
  ecutwfc=80,
  ecutrho=800,
  occupations='smearing',
  smearing='mp',
  degauss=0.003,
 /
&ELECTRONS
  conv_thr =  1d-10
  mixing_beta = 0.7
 /
ATOMIC_SPECIES
  Zr      91.22      Zr.pbe-spn-kjpaw_psl.1.0.0.UPF
  Te      127.60     Te.pbe-n-kjpaw_psl.1.0.0.UPF
ATOMIC_POSITIONS {crystal}
Zr           -0.3124393637        0.3124393637        0.2500000000
Zr            0.3124393637        0.6875606363        0.7500000000
Te            0.3275762201        0.6724237799        0.2500000000
Te           -0.3275762201        0.3275762201        0.7500000000
Te            0.0822647075        0.9177352925        0.1497550270
Te           -0.0822647075        0.0822647075        0.8502449730
Te            0.0822647075        0.9177352925        0.3502449730
Te           -0.0822647075        0.0822647075        0.6497550270
Te           -0.2139622050        0.2139622050        0.4341984423
Te            0.2139622050        0.7860377950        0.5658015577
Te           -0.2139622050        0.2139622050        0.0658015577
Te            0.2139622050        0.7860377950        0.9341984423
K_POINTS {automatic}
  8 8 4  0 0 0
CELL_PARAMETERS {angstrom}
   2.024452314  -7.976355301   0.000000000
   2.024452314   7.976355301   0.000000000
   0.000000000   0.000000000  13.850093144
