&CONTROL
  calculation='scf'
  pseudo_dir = 'pseudo',
  disk_io = "none"
  tstress = .true.
  tprnfor = .true.
 /
&SYSTEM
  ibrav=0,
  nat=12,
  ntyp=2,
  ecutwfc=80,
  ecutrho=800,
  occupations='smearing',
  smearing='mp',
  degauss=0.003,
 /
&ELECTRONS
  conv_thr =  1d-10
  mixing_beta = 0.7
 /
ATOMIC_SPECIES
  Zr      91.22      Zr.pbe-spn-kjpaw_psl.1.0.0.UPF
  Te      127.60     Te.pbe-n-kjpaw_psl.1.0.0.UPF
ATOMIC_POSITIONS {angstrom}
Zr 0.0000000000 4.9778802796 3.4625232903 
Zr 2.0244523166 2.9984750306 10.3875698700 
Te 2.0244523166 2.7504985613 3.4625232903 
Te 0.0000000000 5.2258567490 10.3875698700 
Te 2.0244523166 6.6669118908 2.0761017414 
Te 0.0000000000 1.3094434194 11.7739914180 
Te 2.0244523166 6.6669118908 4.8489448383 
Te 0.0000000000 1.3094434194 9.0011483211 
Te 0.0000000000 3.4244442018 6.0243430543 
Te 2.0244523166 4.5519111084 7.8257501051 
Te 0.0000000000 3.4244442018 0.9007035254 
Te 2.0244523166 4.5519111084 12.9493896340 
K_POINTS {automatic}
  8 8 4  0 0 0
CELL_PARAMETERS {angstrom}
2.02445231251649 -7.97635530939545 0.00000000000000
2.02445231251649 7.97635530939545 0.00000000000000
0.00000000000000 0.00000000000000 13.85009315609958
