&CONTROL
  calculation='scf'
  pseudo_dir = 'pseudo',
  disk_io = "none"
  tstress = .true.
  tprnfor = .true.
 /
&SYSTEM
  ibrav=0,
  nat=12,
  ntyp=2,
  ecutwfc=80,
  ecutrho=800,
  occupations='smearing',
  smearing='mp',
  degauss=0.003,
 /
&ELECTRONS
  conv_thr =  1d-10
  mixing_beta = 0.7
 /
ATOMIC_SPECIES
  Zr      91.22      Zr.pbe-spn-kjpaw_psl.1.0.0.UPF
  Te      127.60     Te.pbe-n-kjpaw_psl.1.0.0.UPF
ATOMIC_POSITIONS {angstrom}
Zr 0.0000000000 4.9699121847 3.4625232903 
Zr 2.0244523166 3.0064431255 10.3875698700 
Te 2.0244523166 2.7503384319 3.4625232903 
Te 0.0000000000 5.2260168783 10.3875698700 
Te 2.0244523166 6.6705389580 2.0785775748 
Te -0.0000000000 1.3058163522 11.7715155846 
Te 2.0244523166 6.6705389580 4.8464690049 
Te -0.0000000000 1.3058163522 9.0036241545 
Te 0.0000000000 3.4384030292 6.0376607775 
Te 2.0244523166 4.5379522810 7.8124323819 
Te 0.0000000000 3.4384030292 0.8873858022 
Te 2.0244523166 4.5379522810 12.9627073572 
K_POINTS {automatic}
  8 8 4  0 0 0
CELL_PARAMETERS {angstrom}
2.02445231251649 -7.97635530939545 0.00000000000000
2.02445231251649 7.97635530939545 0.00000000000000
0.00000000000000 0.00000000000000 13.85009315609958
