&CONTROL
  calculation='scf'
  pseudo_dir = 'pseudo',
  disk_io = "none"
  tstress = .true.
  tprnfor = .true.
 /
&SYSTEM
  ibrav=0,
  nat=12,
  ntyp=2,
  ecutwfc=80,
  ecutrho=800,
  occupations='smearing',
  smearing='mp',
  degauss=0.003,
 /
&ELECTRONS
  conv_thr =  1d-10
  mixing_beta = 0.7
 /
ATOMIC_SPECIES
  Zr      91.22      Zr.pbe-spn-kjpaw_psl.1.0.0.UPF
  Te      127.60     Te.pbe-n-kjpaw_psl.1.0.0.UPF
ATOMIC_POSITIONS {angstrom}
Zr 0.0000000000 4.9603504708 3.4625232903 
Zr 2.0244523166 3.0160048394 10.3875698700 
Te 2.0244523166 2.7501462767 3.4625232903 
Te 0.0000000000 5.2262090336 10.3875698700 
Te 2.0244523166 6.6748914387 2.0815485749 
Te 0.0000000000 1.3014638715 11.7685445845 
Te 2.0244523166 6.6748914387 4.8434980048 
Te -0.0000000000 1.3014638715 9.0065951546 
Te 0.0000000000 3.4551536221 6.0536420453 
Te 2.0244523166 4.5212016881 7.7964511141 
Te 0.0000000000 3.4551536221 0.8714045344 
Te 2.0244523166 4.5212016881 12.9786886250 
K_POINTS {automatic}
  8 8 4  0 0 0
CELL_PARAMETERS {angstrom}
2.02445231251649 -7.97635530939545 0.00000000000000
2.02445231251649 7.97635530939545 0.00000000000000
0.00000000000000 0.00000000000000 13.85009315609958
