&CONTROL
  calculation='scf'
  pseudo_dir = 'pseudo',
  disk_io = "none"
  tstress = .true.
  tprnfor = .true.
 /
&SYSTEM
  ibrav=0,
  nat=12,
  ntyp=2,
  ecutwfc=80,
  ecutrho=800,
  occupations='smearing',
  smearing='mp',
  degauss=0.003,
 /
&ELECTRONS
  conv_thr =  1d-10
  mixing_beta = 0.7
 /
ATOMIC_SPECIES
  Zr      91.22      Zr.pbe-spn-kjpaw_psl.1.0.0.UPF
  Te      127.60     Te.pbe-n-kjpaw_psl.1.0.0.UPF
ATOMIC_POSITIONS {angstrom}
Zr 0.0000000000 4.9683185657 3.4625232903 
Zr 2.0244523166 3.0080367445 10.3875698700 
Te 2.0244523166 2.7503064060 3.4625232903 
Te 0.0000000000 5.2260489042 10.3875698700 
Te 2.0244523166 6.6712643715 2.0790727415 
Te -0.0000000000 1.3050909387 11.7710204179 
Te 2.0244523166 6.6712643715 4.8459738382 
Te -0.0000000000 1.3050909387 9.0041193212 
Te 0.0000000000 3.4411947947 6.0403243221 
Te 2.0244523166 4.5351605155 7.8097688373 
Te 0.0000000000 3.4411947947 0.8847222576 
Te 2.0244523166 4.5351605155 12.9653709018 
K_POINTS {automatic}
  8 8 4  0 0 0
CELL_PARAMETERS {angstrom}
2.02445231251649 -7.97635530939545 0.00000000000000
2.02445231251649 7.97635530939545 0.00000000000000
0.00000000000000 0.00000000000000 13.85009315609958
