&CONTROL
  calculation='scf'
  pseudo_dir = 'pseudo',
  disk_io = "none"
  tstress = .true.
  tprnfor = .true.
 /
&SYSTEM
  ibrav=0,
  nat=12,
  ntyp=2,
  ecutwfc=80,
  ecutrho=800,
  occupations='smearing',
  smearing='mp',
  degauss=0.003,
 /
&ELECTRONS
  conv_thr =  1d-10
  mixing_beta = 0.7
 /
ATOMIC_SPECIES
  Zr      91.22      Zr.pbe-spn-kjpaw_psl.1.0.0.UPF
  Te      127.60     Te.pbe-n-kjpaw_psl.1.0.0.UPF
ATOMIC_POSITIONS {angstrom}
Zr 0.0000000000 4.9539759948 3.4625232903 
Zr 2.0244523166 3.0223793154 10.3875698700 
Te 2.0244523166 2.7500181732 3.4625232903 
Te 0.0000000000 5.2263371371 10.3875698700 
Te 2.0244523166 6.6777930925 2.0835292416 
Te 0.0000000000 1.2985622177 11.7665639178 
Te 2.0244523166 6.6777930925 4.8415173381 
Te 0.0000000000 1.2985622177 9.0085758213 
Te -0.0000000000 3.4663206840 6.0642962239 
Te 2.0244523166 4.5100346262 7.7857969355 
Te -0.0000000000 3.4663206840 0.8607503558 
Te 2.0244523166 4.5100346262 12.9893428036 
K_POINTS {automatic}
  8 8 4  0 0 0
CELL_PARAMETERS {angstrom}
2.02445231251649 -7.97635530939545 0.00000000000000
2.02445231251649 7.97635530939545 0.00000000000000
0.00000000000000 0.00000000000000 13.85009315609958
