&CONTROL
  calculation='scf'
  pseudo_dir = 'pseudo',
  disk_io = "none"
  tstress = .true.
  tprnfor = .true.
 /
&SYSTEM
  ibrav=0,
  nat=12,
  ntyp=2,
  ecutwfc=80,
  ecutrho=800,
  occupations='smearing',
  smearing='mp',
  degauss=0.003,
 /
&ELECTRONS
  conv_thr =  1d-10
  mixing_beta = 0.7
 /
ATOMIC_SPECIES
  Zr      91.22      Zr.pbe-spn-kjpaw_psl.1.0.0.UPF
  Te      127.60     Te.pbe-n-kjpaw_psl.1.0.0.UPF
ATOMIC_POSITIONS {angstrom}
Zr 0.0000000000 4.9523823758 3.4625232903 
Zr 2.0244523166 3.0239729344 10.3875698700 
Te 2.0244523166 2.7499861473 3.4625232903 
Te 0.0000000000 5.2263691629 10.3875698700 
Te 2.0244523166 6.6785185059 2.0840244082 
Te 0.0000000000 1.2978368043 11.7660687511 
Te 2.0244523166 6.6785185059 4.8410221714 
Te 0.0000000000 1.2978368043 9.0090709879 
Te -0.0000000000 3.4691124495 6.0669597685 
Te 2.0244523166 4.5072428607 7.7831333909 
Te -0.0000000000 3.4691124495 0.8580868112 
Te 2.0244523166 4.5072428607 12.9920063482 
K_POINTS {automatic}
  8 8 4  0 0 0
CELL_PARAMETERS {angstrom}
2.02445231251649 -7.97635530939545 0.00000000000000
2.02445231251649 7.97635530939545 0.00000000000000
0.00000000000000 0.00000000000000 13.85009315609958
