&CONTROL
  calculation='scf'
  pseudo_dir = 'pseudo',
  disk_io = "none"
  tstress = .true.
  tprnfor = .true.
 /
&SYSTEM
  ibrav=0,
  nat=12,
  ntyp=2,
  ecutwfc=80,
  ecutrho=800,
  occupations='smearing',
  smearing='mp',
  degauss=0.003,
 /
&ELECTRONS
  conv_thr =  1d-10
  mixing_beta = 0.7
 /
ATOMIC_SPECIES
  Zr      91.22      Zr.pbe-spn-kjpaw_psl.1.0.0.UPF
  Te      127.60     Te.pbe-n-kjpaw_psl.1.0.0.UPF
ATOMIC_POSITIONS {angstrom}
Zr 0.0000000000 4.9268844721 3.4625232903 
Zr 2.0244523166 3.0494708381 10.3875698700 
Te 2.0244523166 2.7494737333 3.4625232903 
Te 0.0000000000 5.2268815769 10.3875698700 
Te 2.0244523166 6.6901251211 2.0919470751 
Te 0.0000000000 1.2862301891 11.7581460843 
Te 2.0244523166 6.6901251211 4.8330995046 
Te -0.0000000000 1.2862301891 9.0169936548 
Te -0.0000000000 3.5137806972 6.1095764827 
Te 2.0244523166 4.4625746131 7.7405166767 
Te -0.0000000000 3.5137806972 0.8154700970 
Te 2.0244523166 4.4625746131 13.0346230624 
K_POINTS {automatic}
  8 8 4  0 0 0
CELL_PARAMETERS {angstrom}
2.02445231251649 -7.97635530939545 0.00000000000000
2.02445231251649 7.97635530939545 0.00000000000000
0.00000000000000 0.00000000000000 13.85009315609958
