&CONTROL
  calculation='scf'
  pseudo_dir = 'pseudo',
  disk_io = "none"
  tstress = .true.
  tprnfor = .true.
 /
&SYSTEM
  ibrav=0,
  nat=12,
  ntyp=2,
  ecutwfc=80,
  ecutrho=800,
  occupations='smearing',
  smearing='mp',
  degauss=0.003,
 /
&ELECTRONS
  conv_thr =  1d-10
  mixing_beta = 0.7
 /
ATOMIC_SPECIES
  Zr      91.22      Zr.pbe-spn-kjpaw_psl.1.0.0.UPF
  Te      127.60     Te.pbe-n-kjpaw_psl.1.0.0.UPF
ATOMIC_POSITIONS {angstrom}
Zr 0.0000000000 4.9141355202 3.4625232903 
Zr 2.0244523166 3.0622197900 10.3875698700 
Te 2.0244523166 2.7492175263 3.4625232903 
Te 0.0000000000 5.2271377839 10.3875698700 
Te 2.0244523166 6.6959284287 2.0959084085 
Te -0.0000000000 1.2804268816 11.7541847509 
Te 2.0244523166 6.6959284287 4.8291381712 
Te -0.0000000000 1.2804268816 9.0209549882 
Te -0.0000000000 3.5361148210 6.1308848398 
Te 2.0244523166 4.4402404892 7.7192083196 
Te -0.0000000000 3.5361148210 0.7941617399 
Te 2.0244523166 4.4402404892 13.0559314195 
K_POINTS {automatic}
  8 8 4  0 0 0
CELL_PARAMETERS {angstrom}
2.02445231251649 -7.97635530939545 0.00000000000000
2.02445231251649 7.97635530939545 0.00000000000000
0.00000000000000 0.00000000000000 13.85009315609958
