&CONTROL
  calculation='scf'
  pseudo_dir = 'pseudo',
  disk_io = "none"
  tstress = .true.
  tprnfor = .true.
 /
&SYSTEM
  ibrav=0,
  nat=12,
  ntyp=2,
  ecutwfc=80,
  ecutrho=800,
  occupations='smearing',
  smearing='mp',
  degauss=0.003,
 /
&ELECTRONS
  conv_thr =  1d-10
  mixing_beta = 0.7
 /
ATOMIC_SPECIES
  Zr      91.22      Zr.pbe-spn-kjpaw_psl.1.0.0.UPF
  Te      127.60     Te.pbe-n-kjpaw_psl.1.0.0.UPF
ATOMIC_POSITIONS {angstrom}
Zr -0.0000000000 4.9125419012 3.4625232903 
Zr 2.0244523166 3.0638134090 10.3875698700 
Te 2.0244523166 2.7491855005 3.4625232903 
Te 0.0000000000 5.2271698098 10.3875698700 
Te 2.0244523166 6.6966538421 2.0964035752 
Te -0.0000000000 1.2797014681 11.7536895842 
Te 2.0244523166 6.6966538421 4.8286430045 
Te -0.0000000000 1.2797014681 9.0214501549 
Te -0.0000000000 3.5389065865 6.1335483844 
Te 2.0244523166 4.4374487237 7.7165447750 
Te -0.0000000000 3.5389065865 0.7914981953 
Te 2.0244523166 4.4374487237 13.0585949641 
K_POINTS {automatic}
  8 8 4  0 0 0
CELL_PARAMETERS {angstrom}
2.02445231251649 -7.97635530939545 0.00000000000000
2.02445231251649 7.97635530939545 0.00000000000000
0.00000000000000 0.00000000000000 13.85009315609958
