&CONTROL
  calculation='scf'
  pseudo_dir = 'pseudo',
  disk_io = "none"
  tstress = .true.
  tprnfor = .true.
 /
&SYSTEM
  ibrav=0,
  nat=12,
  ntyp=2,
  ecutwfc=80,
  ecutrho=800,
  occupations='smearing',
  smearing='mp',
  degauss=0.003,
 /
&ELECTRONS
  conv_thr =  1d-10
  mixing_beta = 0.7
 /
ATOMIC_SPECIES
  Zr      91.22      Zr.pbe-spn-kjpaw_psl.1.0.0.UPF
  Te      127.60     Te.pbe-n-kjpaw_psl.1.0.0.UPF
ATOMIC_POSITIONS {angstrom}
Zr 0.0000000000 4.9045738063 3.4625232903 
Zr 2.0244523166 3.0717815039 10.3875698700 
Te 2.0244523166 2.7490253711 3.4625232903 
Te 0.0000000000 5.2273299391 10.3875698700 
Te 2.0244523166 6.7002809093 2.0988794086 
Te -0.0000000000 1.2760744009 11.7512137508 
Te 2.0244523166 6.7002809093 4.8261671711 
Te -0.0000000000 1.2760744009 9.0239259883 
Te -0.0000000000 3.5528654139 6.1468661076 
Te 2.0244523166 4.4234898963 7.7032270518 
Te -0.0000000000 3.5528654139 0.7781804721 
Te 2.0244523166 4.4234898963 13.0719126873 
K_POINTS {automatic}
  8 8 4  0 0 0
CELL_PARAMETERS {angstrom}
2.02445231251649 -7.97635530939545 0.00000000000000
2.02445231251649 7.97635530939545 0.00000000000000
0.00000000000000 0.00000000000000 13.85009315609958
