&CONTROL
  calculation='scf'
  pseudo_dir = 'pseudo',
  disk_io = "none"
  tstress = .true.
  tprnfor = .true.
 /
&SYSTEM
  ibrav=0,
  nat=12,
  ntyp=2,
  ecutwfc=80,
  ecutrho=800,
  occupations='smearing',
  smearing='mp',
  degauss=0.003,
 /
&ELECTRONS
  conv_thr =  1d-10
  mixing_beta = 0.7
 /
ATOMIC_SPECIES
  Zr      91.22      Zr.pbe-spn-kjpaw_psl.1.0.0.UPF
  Te      127.60     Te.pbe-n-kjpaw_psl.1.0.0.UPF
ATOMIC_POSITIONS {angstrom}
Zr 0.0000000000 5.0113462783 3.4625232903 
Zr 2.0244523166 2.9650090319 10.3875698700 
Te 2.0244523166 2.7511711046 3.4625232903 
Te 0.0000000000 5.2251842056 10.3875698700 
Te 2.0244523166 6.6516782084 2.0657032412 
Te 0.0000000000 1.3246771018 11.7843899182 
Te 2.0244523166 6.6516782084 4.8593433385 
Te 0.0000000000 1.3246771018 8.9907498209 
Te 0.0000000000 3.3658171267 5.9684086169 
Te 2.0244523166 4.6105381835 7.8816845425 
Te 0.0000000000 3.3658171267 0.9566379628 
Te 2.0244523166 4.6105381835 12.8934551966 
K_POINTS {automatic}
  8 8 4  0 0 0
CELL_PARAMETERS {angstrom}
2.02445231251649 -7.97635530939545 0.00000000000000
2.02445231251649 7.97635530939545 0.00000000000000
0.00000000000000 0.00000000000000 13.85009315609958
