&CONTROL
  calculation='scf'
  pseudo_dir = 'pseudo',
  disk_io = "none"
  tstress = .true.
  tprnfor = .true.
 /
&SYSTEM
  ibrav=0,
  nat=12,
  ntyp=2,
  ecutwfc=80,
  ecutrho=800,
  occupations='smearing',
  smearing='mp',
  degauss=0.003,
 /
&ELECTRONS
  conv_thr =  1d-10
  mixing_beta = 0.7
 /
ATOMIC_SPECIES
  Zr      91.22      Zr.pbe-spn-kjpaw_psl.1.0.0.UPF
  Te      127.60     Te.pbe-n-kjpaw_psl.1.0.0.UPF
ATOMIC_POSITIONS {angstrom}
Zr 0.0000000000 4.9906292315 3.4625232903 
Zr 2.0244523166 2.9857260787 10.3875698700 
Te 2.0244523166 2.7507547683 3.4625232903 
Te 0.0000000000 5.2256005420 10.3875698700 
Te 2.0244523166 6.6611085832 2.0721404080 
Te 0.0000000000 1.3152467270 11.7779527514 
Te 2.0244523166 6.6611085832 4.8529061717 
Te 0.0000000000 1.3152467270 8.9971869877 
Te 0.0000000000 3.4021100779 6.0030346972 
Te 2.0244523166 4.5742452323 7.8470584622 
Te 0.0000000000 3.4021100779 0.9220118825 
Te 2.0244523166 4.5742452323 12.9280812769 
K_POINTS {automatic}
  8 8 4  0 0 0
CELL_PARAMETERS {angstrom}
2.02445231251649 -7.97635530939545 0.00000000000000
2.02445231251649 7.97635530939545 0.00000000000000
0.00000000000000 0.00000000000000 13.85009315609958
