&CONTROL
  calculation='scf'
  pseudo_dir = 'pseudo',
  disk_io = "none"
  tstress = .true.
  tprnfor = .true.
 /
&SYSTEM
  ibrav=0,
  nat=12,
  ntyp=2,
  ecutwfc=80,
  ecutrho=800,
  occupations='smearing',
  smearing='mp',
  degauss=0.003,
 /
&ELECTRONS
  conv_thr =  1d-10
  mixing_beta = 0.7
 /
ATOMIC_SPECIES
  Zr      91.22      Zr.pbe-spn-kjpaw_psl.1.0.0.UPF
  Te      127.60     Te.pbe-n-kjpaw_psl.1.0.0.UPF
ATOMIC_POSITIONS {angstrom}
Zr 0.0000000000 5.0288760872 3.4625232903 
Zr 2.0244523166 2.9474792231 10.3875698700 
Te 2.0244523166 2.7515233892 3.4625232903 
Te 0.0000000000 5.2248319210 10.3875698700 
Te 2.0244523166 6.6436986605 2.0602564077 
Te 0.0000000000 1.3326566497 11.7898367517 
Te 2.0244523166 6.6436986605 4.8647901720 
Te 0.0000000000 1.3326566497 8.9853029874 
Te 0.0000000000 3.3351077064 5.9391096259 
Te 2.0244523166 4.6412476038 7.9109835335 
Te 0.0000000000 3.3351077064 0.9859369538 
Te 2.0244523166 4.6412476038 12.8641562056 
K_POINTS {automatic}
  8 8 4  0 0 0
CELL_PARAMETERS {angstrom}
2.02445231251649 -7.97635530939545 0.00000000000000
2.02445231251649 7.97635530939545 0.00000000000000
0.00000000000000 0.00000000000000 13.85009315609958
