&CONTROL
  calculation='scf'
  pseudo_dir = 'pseudo',
  disk_io = "none"
  tstress = .true.
  tprnfor = .true.
 /
&SYSTEM
  ibrav=0,
  nat=12,
  ntyp=2,
  ecutwfc=80,
  ecutrho=800,
  occupations='smearing',
  smearing='mp',
  degauss=0.003,
 /
&ELECTRONS
  conv_thr =  1d-10
  mixing_beta = 0.7
 /
ATOMIC_SPECIES
  Zr      91.22      Zr.pbe-spn-kjpaw_psl.1.0.0.UPF
  Te      127.60     Te.pbe-n-kjpaw_psl.1.0.0.UPF
ATOMIC_POSITIONS {angstrom}
Zr 0.0000000000 5.0527803719 3.4625232903 
Zr 2.0244523166 2.9235749383 10.3875698700 
Te 2.0244523166 2.7520037773 3.4625232903 
Te 0.0000000000 5.2243515329 10.3875698700 
Te 2.0244523166 6.6328174588 2.0528289076 
Te 0.0000000000 1.3435378514 11.7972642518 
Te 2.0244523166 6.6328174588 4.8722176721 
Te 0.0000000000 1.3435378514 8.9778754873 
Te 0.0000000000 3.2932312242 5.8991564564 
Te 2.0244523166 4.6831240860 7.9509367030 
Te 0.0000000000 3.2932312242 1.0258901233 
Te 2.0244523166 4.6831240860 12.8242030361 
K_POINTS {automatic}
  8 8 4  0 0 0
CELL_PARAMETERS {angstrom}
2.02445231251649 -7.97635530939545 0.00000000000000
2.02445231251649 7.97635530939545 0.00000000000000
0.00000000000000 0.00000000000000 13.85009315609958
