&CONTROL
  calculation='scf'
  pseudo_dir = 'pseudo',
  disk_io = "none"
  tstress = .true.
  tprnfor = .true.
 /
&SYSTEM
  ibrav=0,
  nat=12,
  ntyp=2,
  ecutwfc=80,
  ecutrho=800,
  occupations='smearing',
  smearing='mp',
  degauss=0.003,
 /
&ELECTRONS
  conv_thr =  1d-10
  mixing_beta = 0.7
 /
ATOMIC_SPECIES
  Zr      91.22      Zr.pbe-spn-kjpaw_psl.1.0.0.UPF
  Te      127.60     Te.pbe-n-kjpaw_psl.1.0.0.UPF
ATOMIC_POSITIONS {angstrom}
Zr 0.0000000000 5.0240952302 3.4625232903 
Zr 2.0244523166 2.9522600800 10.3875698700 
Te 2.0244523166 2.7514273116 3.4625232903 
Te 0.0000000000 5.2249279986 10.3875698700 
Te 2.0244523166 6.6458749009 2.0617419078 
Te 0.0000000000 1.3304804094 11.7883512516 
Te 2.0244523166 6.6458749009 4.8633046719 
Te 0.0000000000 1.3304804094 8.9867884875 
Te 0.0000000000 3.3434830029 5.9471002598 
Te 2.0244523166 4.6328723074 7.9029928996 
Te 0.0000000000 3.3434830029 0.9779463199 
Te 2.0244523166 4.6328723074 12.8721468395 
K_POINTS {automatic}
  8 8 4  0 0 0
CELL_PARAMETERS {angstrom}
2.02445231251649 -7.97635530939545 0.00000000000000
2.02445231251649 7.97635530939545 0.00000000000000
0.00000000000000 0.00000000000000 13.85009315609958
