&CONTROL
  calculation='scf'
  pseudo_dir = 'pseudo',
  disk_io = "none"
  tstress = .true.
  tprnfor = .true.
 /
&SYSTEM
  ibrav=0,
  nat=12,
  ntyp=2,
  ecutwfc=80,
  ecutrho=800,
  occupations='smearing',
  smearing='mp',
  degauss=0.003,
 /
&ELECTRONS
  conv_thr =  1d-10
  mixing_beta = 0.7
 /
ATOMIC_SPECIES
  Zr      91.22      Zr.pbe-spn-kjpaw_psl.1.0.0.UPF
  Te      127.60     Te.pbe-n-kjpaw_psl.1.0.0.UPF
ATOMIC_POSITIONS {angstrom}
Zr 0.0000000000 5.0432186580 3.4625232903 
Zr 2.0244523166 2.9331366522 10.3875698700 
Te 2.0244523166 2.7518116221 3.4625232903 
Te 0.0000000000 5.2245436882 10.3875698700 
Te 2.0244523166 6.6371699395 2.0557999076 
Te 0.0000000000 1.3391853707 11.7942932518 
Te 2.0244523166 6.6371699395 4.8692466721 
Te 0.0000000000 1.3391853707 8.9808464873 
Te 0.0000000000 3.3099818171 5.9151377242 
Te 2.0244523166 4.6663734931 7.9349554352 
Te 0.0000000000 3.3099818171 1.0099088555 
Te 2.0244523166 4.6663734931 12.8401843039 
K_POINTS {automatic}
  8 8 4  0 0 0
CELL_PARAMETERS {angstrom}
2.02445231251649 -7.97635530939545 0.00000000000000
2.02445231251649 7.97635530939545 0.00000000000000
0.00000000000000 0.00000000000000 13.85009315609958
