&CONTROL
  calculation='scf'
  pseudo_dir = 'pseudo',
  disk_io = "none"
  tstress = .true.
  tprnfor = .true.
 /
&SYSTEM
  ibrav=0,
  nat=12,
  ntyp=2,
  ecutwfc=80,
  ecutrho=800,
  occupations='smearing',
  smearing='mp',
  degauss=0.003,
 /
&ELECTRONS
  conv_thr =  1d-10
  mixing_beta = 0.7
 /
ATOMIC_SPECIES
  Zr      91.22      Zr.pbe-spn-kjpaw_psl.1.0.0.UPF
  Te      127.60     Te.pbe-n-kjpaw_psl.1.0.0.UPF
ATOMIC_POSITIONS {angstrom}
Zr 0.0000000000 5.0320633251 3.4625232903 
Zr 2.0244523166 2.9442919851 10.3875698700 
Te 2.0244523166 2.7515874410 3.4625232903 
Te 0.0000000000 5.2247678693 10.3875698700 
Te 2.0244523166 6.6422478336 2.0592660744 
Te 0.0000000000 1.3341074766 11.7908270850 
Te 2.0244523166 6.6422478336 4.8657805053 
Te 0.0000000000 1.3341074766 8.9843126541 
Te 0.0000000000 3.3295241754 5.9337825366 
Te 2.0244523166 4.6468311348 7.9163106227 
Te 0.0000000000 3.3295241754 0.9912640430 
Te 2.0244523166 4.6468311348 12.8588291163 
K_POINTS {automatic}
  8 8 4  0 0 0
CELL_PARAMETERS {angstrom}
2.02445231251649 -7.97635530939545 0.00000000000000
2.02445231251649 7.97635530939545 0.00000000000000
0.00000000000000 0.00000000000000 13.85009315609958
