&CONTROL
  calculation='scf'
  pseudo_dir = 'pseudo',
  disk_io = "none"
  tstress = .true.
  tprnfor = .true.
 /
&SYSTEM
  ibrav=0,
  nat=12,
  ntyp=2,
  ecutwfc=80,
  ecutrho=800,
  occupations='smearing',
  smearing='mp',
  degauss=0.003,
 /
&ELECTRONS
  conv_thr =  1d-10
  mixing_beta = 0.7
 /
ATOMIC_SPECIES
  Zr      91.22      Zr.pbe-spn-kjpaw_psl.1.0.0.UPF
  Te      127.60     Te.pbe-n-kjpaw_psl.1.0.0.UPF
ATOMIC_POSITIONS {angstrom}
Zr 0.0000000000 5.0607484669 3.4625232903 
Zr 2.0244523166 2.9156068433 10.3875698700 
Te 2.0244523166 2.7521639067 3.4625232903 
Te 0.0000000000 5.2241914035 10.3875698700 
Te 2.0244523166 6.6291903916 2.0503530742 
Te 0.0000000000 1.3471649186 11.7997400852 
Te 2.0244523166 6.6291903916 4.8746935055 
Te 0.0000000000 1.3471649186 8.9753996539 
Te 0.0000000000 3.2792723968 5.8858387332 
Te 2.0244523166 4.6970829134 7.9642544262 
Te 0.0000000000 3.2792723968 1.0392078465 
Te 2.0244523166 4.6970829134 12.8108853129 
K_POINTS {automatic}
  8 8 4  0 0 0
CELL_PARAMETERS {angstrom}
2.02445231251649 -7.97635530939545 0.00000000000000
2.02445231251649 7.97635530939545 0.00000000000000
0.00000000000000 0.00000000000000 13.85009315609958
