&CONTROL
  calculation='scf'
  pseudo_dir = 'pseudo',
  disk_io = "none"
  tstress = .true.
  tprnfor = .true.
 /
&SYSTEM
  ibrav=0,
  nat=12,
  ntyp=2,
  ecutwfc=80,
  ecutrho=800,
  occupations='smearing',
  smearing='mp',
  degauss=0.003,
 /
&ELECTRONS
  conv_thr =  1d-10
  mixing_beta = 0.7
 /
ATOMIC_SPECIES
  Zr      91.22      Zr.pbe-spn-kjpaw_psl.1.0.0.UPF
  Te      127.60     Te.pbe-n-kjpaw_psl.1.0.0.UPF
ATOMIC_POSITIONS {angstrom}
Zr 0.0000000000 4.9826611366 3.4625232903 
Zr 2.0244523166 2.9936941736 10.3875698700 
Te 2.0244523166 2.7505946389 3.4625232903 
Te 0.0000000000 5.2257606713 10.3875698700 
Te 2.0244523166 6.6647356505 2.0746162414 
Te 0.0000000000 1.3116196598 11.7754769180 
Te 2.0244523166 6.6647356505 4.8504303383 
Te 0.0000000000 1.3116196598 8.9996628211 
Te 0.0000000000 3.4160689053 6.0163524204 
Te 2.0244523166 4.5602864049 7.8337407390 
Te 0.0000000000 3.4160689053 0.9086941593 
Te 2.0244523166 4.5602864049 12.9413990001 
K_POINTS {automatic}
  8 8 4  0 0 0
CELL_PARAMETERS {angstrom}
2.02445231251649 -7.97635530939545 0.00000000000000
2.02445231251649 7.97635530939545 0.00000000000000
0.00000000000000 0.00000000000000 13.85009315609958
