&CONTROL
  calculation='scf'
  pseudo_dir = 'pseudo',
  disk_io = "none"
  tstress = .true.
  tprnfor = .true.
 /
&SYSTEM
  ibrav=0,
  nat=12,
  ntyp=2,
  ecutwfc=80,
  ecutrho=800,
  occupations='smearing',
  smearing='mp',
  degauss=0.003,
 /
&ELECTRONS
  conv_thr =  1d-10
  mixing_beta = 0.7
 /
ATOMIC_SPECIES
  Zr      91.22      Zr.pbe-spn-kjpaw_psl.1.0.0.UPF
  Te      127.60     Te.pbe-n-kjpaw_psl.1.0.0.UPF
ATOMIC_POSITIONS {angstrom}
Zr 0.0000000000 4.9619440898 3.4625232903 
Zr 2.0244523166 3.0144112205 10.3875698700 
Te 2.0244523166 2.7501783025 3.4625232903 
Te 0.0000000000 5.2261770077 10.3875698700 
Te 2.0244523166 6.6741660253 2.0810534082 
Te 0.0000000000 1.3021892850 11.7690397512 
Te 2.0244523166 6.6741660253 4.8439931715 
Te -0.0000000000 1.3021892850 9.0060999879 
Te 0.0000000000 3.4523618566 6.0509785007 
Te 2.0244523166 4.5239934536 7.7991146587 
Te 0.0000000000 3.4523618566 0.8740680790 
Te 2.0244523166 4.5239934536 12.9760250804 
K_POINTS {automatic}
  8 8 4  0 0 0
CELL_PARAMETERS {angstrom}
2.02445231251649 -7.97635530939545 0.00000000000000
2.02445231251649 7.97635530939545 0.00000000000000
0.00000000000000 0.00000000000000 13.85009315609958
