&CONTROL
  calculation='scf'
  pseudo_dir = 'pseudo',
  disk_io = "none"
  tstress = .true.
  tprnfor = .true.
 /
&SYSTEM
  ibrav=0,
  nat=12,
  ntyp=2,
  ecutwfc=80,
  ecutrho=800,
  occupations='smearing',
  smearing='mp',
  degauss=0.003,
 /
&ELECTRONS
  conv_thr =  1d-10
  mixing_beta = 0.7
 /
ATOMIC_SPECIES
  Zr      91.22      Zr.pbe-spn-kjpaw_psl.1.0.0.UPF
  Te      127.60     Te.pbe-n-kjpaw_psl.1.0.0.UPF
ATOMIC_POSITIONS {angstrom}
Zr 0.0000000000 4.9587568518 3.4625232903 
Zr 2.0244523166 3.0175984584 10.3875698700 
Te 2.0244523166 2.7501142508 3.4625232903 
Te 0.0000000000 5.2262410594 10.3875698700 
Te 2.0244523166 6.6756168522 2.0820437415 
Te 0.0000000000 1.3007384581 11.7680494179 
Te 2.0244523166 6.6756168522 4.8430028382 
Te 0.0000000000 1.3007384581 9.0070903212 
Te 0.0000000000 3.4579453876 6.0563055900 
Te 2.0244523166 4.5184099227 7.7937875694 
Te 0.0000000000 3.4579453876 0.8687409897 
Te 2.0244523166 4.5184099227 12.9813521696 
K_POINTS {automatic}
  8 8 4  0 0 0
CELL_PARAMETERS {angstrom}
2.02445231251649 -7.97635530939545 0.00000000000000
2.02445231251649 7.97635530939545 0.00000000000000
0.00000000000000 0.00000000000000 13.85009315609958
