&CONTROL
  calculation='scf'
  pseudo_dir = 'pseudo',
  disk_io = "none"
  tstress = .true.
  tprnfor = .true.
 /
&SYSTEM
  ibrav=0,
  nat=12,
  ntyp=2,
  ecutwfc=80,
  ecutrho=800,
  occupations='smearing',
  smearing='mp',
  degauss=0.003,
 /
&ELECTRONS
  conv_thr =  1d-10
  mixing_beta = 0.7
 /
ATOMIC_SPECIES
  Zr      91.22      Zr.pbe-spn-kjpaw_psl.1.0.0.UPF
  Te      127.60     Te.pbe-n-kjpaw_psl.1.0.0.UPF
ATOMIC_POSITIONS {angstrom}
Zr 0.0000000000 4.9491951379 3.4625232903 
Zr 2.0244523166 3.0271601723 10.3875698700 
Te 2.0244523166 2.7499220955 3.4625232903 
Te 0.0000000000 5.2264332147 10.3875698700 
Te 2.0244523166 6.6799693328 2.0850147416 
Te -0.0000000000 1.2963859774 11.7650784178 
Te 2.0244523166 6.6799693328 4.8400318381 
Te -0.0000000000 1.2963859774 9.0100613213 
Te -0.0000000000 3.4746959804 6.0722868578 
Te 2.0244523166 4.5016593298 7.7778063016 
Te -0.0000000000 3.4746959804 0.8527597219 
Te 2.0244523166 4.5016593298 12.9973334375 
K_POINTS {automatic}
  8 8 4  0 0 0
CELL_PARAMETERS {angstrom}
2.02445231251649 -7.97635530939545 0.00000000000000
2.02445231251649 7.97635530939545 0.00000000000000
0.00000000000000 0.00000000000000 13.85009315609958
