&CONTROL
  calculation='scf'
  pseudo_dir = 'pseudo',
  disk_io = "none"
  tstress = .true.
  tprnfor = .true.
 /
&SYSTEM
  ibrav=0,
  nat=12,
  ntyp=2,
  ecutwfc=80,
  ecutrho=800,
  occupations='smearing',
  smearing='mp',
  degauss=0.003,
 /
&ELECTRONS
  conv_thr =  1d-10
  mixing_beta = 0.7
 /
ATOMIC_SPECIES
  Zr      91.22      Zr.pbe-spn-kjpaw_psl.1.0.0.UPF
  Te      127.60     Te.pbe-n-kjpaw_psl.1.0.0.UPF
ATOMIC_POSITIONS {angstrom}
Zr 0.0000000000 4.9093546632 3.4625232903 
Zr 2.0244523166 3.0670006470 10.3875698700 
Te 2.0244523166 2.7491214487 3.4625232903 
Te 0.0000000000 5.2272338615 10.3875698700 
Te 2.0244523166 6.6981046690 2.0973939085 
Te -0.0000000000 1.2782506412 11.7526992508 
Te 2.0244523166 6.6981046690 4.8276526712 
Te -0.0000000000 1.2782506412 9.0224404882 
Te -0.0000000000 3.5444901175 6.1388754737 
Te 2.0244523166 4.4318651928 7.7112176857 
Te -0.0000000000 3.5444901175 0.7861711060 
Te 2.0244523166 4.4318651928 13.0639220534 
K_POINTS {automatic}
  8 8 4  0 0 0
CELL_PARAMETERS {angstrom}
2.02445231251649 -7.97635530939545 0.00000000000000
2.02445231251649 7.97635530939545 0.00000000000000
0.00000000000000 0.00000000000000 13.85009315609958
