&CONTROL
  calculation='scf'
  pseudo_dir = 'pseudo',
  disk_io = "none"
  tstress = .true.
  tprnfor = .true.
 /
&SYSTEM
  ibrav=0,
  nat=12,
  ntyp=2,
  ecutwfc=80,
  ecutrho=800,
  occupations='smearing',
  smearing='mp',
  degauss=0.003,
 /
&ELECTRONS
  conv_thr =  1d-10
  mixing_beta = 0.7
 /
ATOMIC_SPECIES
  Zr      91.22      Zr.pbe-spn-kjpaw_psl.1.0.0.UPF
  Te      127.60     Te.pbe-n-kjpaw_psl.1.0.0.UPF
ATOMIC_POSITIONS {angstrom}
Zr 0.0000000000 4.9061674253 3.4625232903 
Zr 2.0244523166 3.0701878850 10.3875698700 
Te 2.0244523166 2.7490573970 3.4625232903 
Te 0.0000000000 5.2272979132 10.3875698700 
Te 2.0244523166 6.6995554959 2.0983842419 
Te -0.0000000000 1.2767998143 11.7517089175 
Te 2.0244523166 6.6995554959 4.8266623378 
Te -0.0000000000 1.2767998143 9.0234308216 
Te -0.0000000000 3.5500736484 6.1442025630 
Te 2.0244523166 4.4262816618 7.7058905964 
Te -0.0000000000 3.5500736484 0.7808440167 
Te 2.0244523166 4.4262816618 13.0692491427 
K_POINTS {automatic}
  8 8 4  0 0 0
CELL_PARAMETERS {angstrom}
2.02445231251649 -7.97635530939545 0.00000000000000
2.02445231251649 7.97635530939545 0.00000000000000
0.00000000000000 0.00000000000000 13.85009315609958
