&CONTROL
  calculation='scf'
  pseudo_dir = 'pseudo',
  disk_io = "none"
  tstress = .true.
  tprnfor = .true.
 /
&SYSTEM
  ibrav=0,
  nat=12,
  ntyp=2,
  ecutwfc=80,
  ecutrho=800,
  occupations='smearing',
  smearing='mp',
  degauss=0.003,
 /
&ELECTRONS
  conv_thr =  1d-10
  mixing_beta = 0.7
 /
ATOMIC_SPECIES
  Zr      91.22      Zr.pbe-spn-kjpaw_psl.1.0.0.UPF
  Te      127.60     Te.pbe-n-kjpaw_psl.1.0.0.UPF
ATOMIC_POSITIONS {angstrom}
Zr 0.0000000000 4.9077610443 3.4625232903 
Zr 2.0244523166 3.0685942660 10.3875698700 
Te 2.0244523166 2.7490894228 3.4625232903 
Te 0.0000000000 5.2272658874 10.3875698700 
Te 2.0244523166 6.6988300824 2.0978890752 
Te -0.0000000000 1.2775252278 11.7522040842 
Te 2.0244523166 6.6988300824 4.8271575045 
Te -0.0000000000 1.2775252278 9.0229356549 
Te -0.0000000000 3.5472818829 6.1415390183 
Te 2.0244523166 4.4290734273 7.7085541411 
Te -0.0000000000 3.5472818829 0.7835075614 
Te 2.0244523166 4.4290734273 13.0665855980 
K_POINTS {automatic}
  8 8 4  0 0 0
CELL_PARAMETERS {angstrom}
2.02445231251649 -7.97635530939545 0.00000000000000
2.02445231251649 7.97635530939545 0.00000000000000
0.00000000000000 0.00000000000000 13.85009315609958
