&CONTROL
  calculation='scf'
  pseudo_dir = 'pseudo',
  disk_io = "none"
  tstress = .true.
  tprnfor = .true.
 /
&SYSTEM
  ibrav=0,
  nat=12,
  ntyp=2,
  ecutwfc=80,
  ecutrho=800,
  occupations='smearing',
  smearing='mp',
  degauss=0.003,
 /
&ELECTRONS
  conv_thr =  1d-10
  mixing_beta = 0.7
 /
ATOMIC_SPECIES
  Zr      91.22      Zr.pbe-spn-kjpaw_psl.1.0.0.UPF
  Te      127.60     Te.pbe-n-kjpaw_psl.1.0.0.UPF
ATOMIC_POSITIONS {angstrom}
Zr 0.0000000000 4.9890356125 3.4625232903 
Zr 2.0244523166 2.9873196977 10.3875698700 
Te 2.0244523166 2.7507227424 3.4625232903 
Te 0.0000000000 5.2256325678 10.3875698700 
Te 2.0244523166 6.6618339967 2.0726355747 
Te 0.0000000000 1.3145213135 11.7774575847 
Te 2.0244523166 6.6618339967 4.8524110050 
Te 0.0000000000 1.3145213135 8.9976821544 
Te 0.0000000000 3.4049018434 6.0056982418 
Te 2.0244523166 4.5714534668 7.8443949175 
Te 0.0000000000 3.4049018434 0.9193483378 
Te 2.0244523166 4.5714534668 12.9307448215 
K_POINTS {automatic}
  8 8 4  0 0 0
CELL_PARAMETERS {angstrom}
2.02445231251649 -7.97635530939545 0.00000000000000
2.02445231251649 7.97635530939545 0.00000000000000
0.00000000000000 0.00000000000000 13.85009315609958
