&CONTROL
  calculation='scf'
  pseudo_dir = 'pseudo',
  disk_io = "none"
  tstress = .true.
  tprnfor = .true.
 /
&SYSTEM
  ibrav=0,
  nat=12,
  ntyp=2,
  ecutwfc=80,
  ecutrho=800,
  occupations='smearing',
  smearing='mp',
  degauss=0.003,
 /
&ELECTRONS
  conv_thr =  1d-10
  mixing_beta = 0.7
 /
ATOMIC_SPECIES
  Zr      91.22      Zr.pbe-spn-kjpaw_psl.1.0.0.UPF
  Te      127.60     Te.pbe-n-kjpaw_psl.1.0.0.UPF
ATOMIC_POSITIONS {angstrom}
Zr 0.0000000000 5.0368441821 3.4625232903 
Zr 2.0244523166 2.9395111281 10.3875698700 
Te 2.0244523166 2.7516835186 3.4625232903 
Te 0.0000000000 5.2246717916 10.3875698700 
Te 2.0244523166 6.6400715933 2.0577805743 
Te 0.0000000000 1.3362837169 11.7923125851 
Te 2.0244523166 6.6400715933 4.8672660054 
Te 0.0000000000 1.3362837169 8.9828271540 
Te 0.0000000000 3.3211488790 5.9257919027 
Te 2.0244523166 4.6552064312 7.9243012567 
Te 0.0000000000 3.3211488790 0.9992546770 
Te 2.0244523166 4.6552064312 12.8508384824 
K_POINTS {automatic}
  8 8 4  0 0 0
CELL_PARAMETERS {angstrom}
2.02445231251649 -7.97635530939545 0.00000000000000
2.02445231251649 7.97635530939545 0.00000000000000
0.00000000000000 0.00000000000000 13.85009315609958
