&CONTROL
  calculation='scf'
  pseudo_dir = 'pseudo',
  disk_io = "none"
  tstress = .true.
  tprnfor = .true.
 /
&SYSTEM
  ibrav=0,
  nat=12,
  ntyp=2,
  ecutwfc=80,
  ecutrho=800,
  occupations='smearing',
  smearing='mp',
  degauss=0.003,
 /
&ELECTRONS
  conv_thr =  1d-10
  mixing_beta = 0.7
 /
ATOMIC_SPECIES
  Zr      91.22      Zr.pbe-spn-kjpaw_psl.1.0.0.UPF
  Te      127.60     Te.pbe-n-kjpaw_psl.1.0.0.UPF
ATOMIC_POSITIONS {angstrom}
Zr 0.0000000000 4.9954100885 3.4625232903 
Zr 2.0244523166 2.9809452218 10.3875698700 
Te 2.0244523166 2.7508508459 3.4625232903 
Te 0.0000000000 5.2255044643 10.3875698700 
Te 2.0244523166 6.6589323429 2.0706549080 
Te 0.0000000000 1.3174229673 11.7794382514 
Te 2.0244523166 6.6589323429 4.8543916717 
Te 0.0000000000 1.3174229673 8.9957014877 
Te 0.0000000000 3.3937347815 5.9950440633 
Te 2.0244523166 4.5826205287 7.8550490961 
Te 0.0000000000 3.3937347815 0.9300025164 
Te 2.0244523166 4.5826205287 12.9200906430 
K_POINTS {automatic}
  8 8 4  0 0 0
CELL_PARAMETERS {angstrom}
2.02445231251649 -7.97635530939545 0.00000000000000
2.02445231251649 7.97635530939545 0.00000000000000
0.00000000000000 0.00000000000000 13.85009315609958
