&CONTROL
  calculation='scf'
  pseudo_dir = 'pseudo',
  disk_io = "none"
  tstress = .true.
  tprnfor = .true.
 /
&SYSTEM
  ibrav=0,
  nat=12,
  ntyp=2,
  ecutwfc=80,
  ecutrho=800,
  occupations='smearing',
  smearing='mp',
  degauss=0.003,
 /
&ELECTRONS
  conv_thr =  1d-10
  mixing_beta = 0.7
 /
ATOMIC_SPECIES
  Zr      91.22      Zr.pbe-spn-kjpaw_psl.1.0.0.UPF
  Te      127.60     Te.pbe-n-kjpaw_psl.1.0.0.UPF
ATOMIC_POSITIONS {angstrom}
Zr 0.0000000000 4.9970037074 3.4625232903 
Zr 2.0244523166 2.9793516028 10.3875698700 
Te 2.0244523166 2.7508828717 3.4625232903 
Te 0.0000000000 5.2254724385 10.3875698700 
Te 2.0244523166 6.6582069294 2.0701597413 
Te 0.0000000000 1.3181483808 11.7799334181 
Te 2.0244523166 6.6582069294 4.8548868384 
Te 0.0000000000 1.3181483808 8.9952063210 
Te 0.0000000000 3.3909430160 5.9923805187 
Te 2.0244523166 4.5854122942 7.8577126407 
Te 0.0000000000 3.3909430160 0.9326660610 
Te 2.0244523166 4.5854122942 12.9174270984 
K_POINTS {automatic}
  8 8 4  0 0 0
CELL_PARAMETERS {angstrom}
2.02445231251649 -7.97635530939545 0.00000000000000
2.02445231251649 7.97635530939545 0.00000000000000
0.00000000000000 0.00000000000000 13.85009315609958
