&CONTROL
  calculation='scf'
  pseudo_dir = 'pseudo',
  disk_io = "none"
  tstress = .true.
  tprnfor = .true.
 /
&SYSTEM
  ibrav=0,
  nat=12,
  ntyp=2,
  ecutwfc=80,
  ecutrho=800,
  occupations='smearing',
  smearing='mp',
  degauss=0.003,
 /
&ELECTRONS
  conv_thr =  1d-10
  mixing_beta = 0.7
 /
ATOMIC_SPECIES
  Zr      91.22      Zr.pbe-spn-kjpaw_psl.1.0.0.UPF
  Te      127.60     Te.pbe-n-kjpaw_psl.1.0.0.UPF
ATOMIC_POSITIONS {angstrom}
Zr 0.0000000000 5.0065654214 3.4625232903 
Zr 2.0244523166 2.9697898889 10.3875698700 
Te 2.0244523166 2.7510750270 3.4625232903 
Te 0.0000000000 5.2252802832 10.3875698700 
Te 2.0244523166 6.6538544488 2.0671887412 
Te 0.0000000000 1.3225008615 11.7829044182 
Te 2.0244523166 6.6538544488 4.8578578385 
Te 0.0000000000 1.3225008615 8.9922353209 
Te 0.0000000000 3.3741924231 5.9763992508 
Te 2.0244523166 4.6021628871 7.8736939086 
Te 0.0000000000 3.3741924231 0.9486473289 
Te 2.0244523166 4.6021628871 12.9014458305 
K_POINTS {automatic}
  8 8 4  0 0 0
CELL_PARAMETERS {angstrom}
2.02445231251649 -7.97635530939545 0.00000000000000
2.02445231251649 7.97635530939545 0.00000000000000
0.00000000000000 0.00000000000000 13.85009315609958
