&CONTROL
  calculation='scf'
  pseudo_dir = 'pseudo',
  disk_io = "none"
  tstress = .true.
  tprnfor = .true.
 /
&SYSTEM
  ibrav=0,
  nat=12,
  ntyp=2,
  ecutwfc=80,
  ecutrho=800,
  occupations='smearing',
  smearing='mp',
  degauss=0.003,
 /
&ELECTRONS
  conv_thr =  1d-10
  mixing_beta = 0.7
 /
ATOMIC_SPECIES
  Zr      91.22      Zr.pbe-spn-kjpaw_psl.1.0.0.UPF
  Te      127.60     Te.pbe-n-kjpaw_psl.1.0.0.UPF
ATOMIC_POSITIONS {angstrom}
Zr 0.0000000000 5.0448122770 3.4625232903 
Zr 2.0244523166 2.9315430332 10.3875698700 
Te 2.0244523166 2.7518436479 3.4625232903 
Te 0.0000000000 5.2245116623 10.3875698700 
Te 2.0244523166 6.6364445261 2.0553047410 
Te 0.0000000000 1.3399107842 11.7947884184 
Te 2.0244523166 6.6364445261 4.8697418387 
Te 0.0000000000 1.3399107842 8.9803513206 
Te 0.0000000000 3.3071900516 5.9124741795 
Te 2.0244523166 4.6691652586 7.9376189798 
Te 0.0000000000 3.3071900516 1.0125724001 
Te 2.0244523166 4.6691652586 12.8375207592 
K_POINTS {automatic}
  8 8 4  0 0 0
CELL_PARAMETERS {angstrom}
2.02445231251649 -7.97635530939545 0.00000000000000
2.02445231251649 7.97635530939545 0.00000000000000
0.00000000000000 0.00000000000000 13.85009315609958
