&CONTROL
  calculation='scf'
  pseudo_dir = 'pseudo',
  disk_io = "none"
  tstress = .true.
  tprnfor = .true.
 /
&SYSTEM
  ibrav=0,
  nat=12,
  ntyp=2,
  ecutwfc=80,
  ecutrho=800,
  occupations='smearing',
  smearing='mp',
  degauss=0.003,
 /
&ELECTRONS
  conv_thr =  1d-10
  mixing_beta = 0.7
 /
ATOMIC_SPECIES
  Zr      91.22      Zr.pbe-spn-kjpaw_psl.1.0.0.UPF
  Te      127.60     Te.pbe-n-kjpaw_psl.1.0.0.UPF
ATOMIC_POSITIONS {angstrom}
Zr 0.0000000000 5.0495931340 3.4625232903 
Zr 2.0244523166 2.9267621762 10.3875698700 
Te 2.0244523166 2.7519397256 3.4625232903 
Te 0.0000000000 5.2244155847 10.3875698700 
Te 2.0244523166 6.6342682857 2.0538192409 
Te 0.0000000000 1.3420870245 11.7962739185 
Te 2.0244523166 6.6342682857 4.8712273388 
Te 0.0000000000 1.3420870245 8.9788658206 
Te 0.0000000000 3.2988147552 5.9044835456 
Te 2.0244523166 4.6775405551 7.9456096138 
Te 0.0000000000 3.2988147552 1.0205630341 
Te 2.0244523166 4.6775405551 12.8295301253 
K_POINTS {automatic}
  8 8 4  0 0 0
CELL_PARAMETERS {angstrom}
2.02445231251649 -7.97635530939545 0.00000000000000
2.02445231251649 7.97635530939545 0.00000000000000
0.00000000000000 0.00000000000000 13.85009315609958
