&CONTROL
  calculation='scf'
  pseudo_dir = 'pseudo',
  disk_io = "none"
  tstress = .true.
  tprnfor = .true.
 /
&SYSTEM
  ibrav=0,
  nat=12,
  ntyp=2,
  ecutwfc=80,
  ecutrho=800,
  occupations='smearing',
  smearing='mp',
  degauss=0.003,
 /
&ELECTRONS
  conv_thr =  1d-10
  mixing_beta = 0.7
 /
ATOMIC_SPECIES
  Zr      91.22      Zr.pbe-spn-kjpaw_psl.1.0.0.UPF
  Te      127.60     Te.pbe-n-kjpaw_psl.1.0.0.UPF
ATOMIC_POSITIONS {angstrom}
Zr 0.0000000000 4.9762866606 3.4625232903 
Zr 2.0244523166 3.0000686496 10.3875698700 
Te 2.0244523166 2.7504665354 3.4625232903 
Te 0.0000000000 5.2258887748 10.3875698700 
Te 2.0244523166 6.6676373042 2.0765969081 
Te 0.0000000000 1.3087180060 11.7734962513 
Te 2.0244523166 6.6676373042 4.8484496716 
Te 0.0000000000 1.3087180060 9.0016434878 
Te 0.0000000000 3.4272359673 6.0270065989 
Te 2.0244523166 4.5491193430 7.8230865604 
Te 0.0000000000 3.4272359673 0.8980399808 
Te 2.0244523166 4.5491193430 12.9520531786 
K_POINTS {automatic}
  8 8 4  0 0 0
CELL_PARAMETERS {angstrom}
2.02445231251649 -7.97635530939545 0.00000000000000
2.02445231251649 7.97635530939545 0.00000000000000
0.00000000000000 0.00000000000000 13.85009315609958
