&CONTROL
  calculation='scf'
  pseudo_dir = 'pseudo',
  disk_io = "none"
  tstress = .true.
  tprnfor = .true.
 /
&SYSTEM
  ibrav=0,
  nat=12,
  ntyp=2,
  ecutwfc=80,
  ecutrho=800,
  occupations='smearing',
  smearing='mp',
  degauss=0.003,
 /
&ELECTRONS
  conv_thr =  1d-10
  mixing_beta = 0.7
 /
ATOMIC_SPECIES
  Zr      91.22      Zr.pbe-spn-kjpaw_psl.1.0.0.UPF
  Te      127.60     Te.pbe-n-kjpaw_psl.1.0.0.UPF
ATOMIC_POSITIONS {angstrom}
Zr 0.0000000000 4.9651313277 3.4625232903 
Zr 2.0244523166 3.0112239825 10.3875698700 
Te 2.0244523166 2.7502423543 3.4625232903 
Te 0.0000000000 5.2261129559 10.3875698700 
Te 2.0244523166 6.6727151984 2.0800630748 
Te 0.0000000000 1.3036401118 11.7700300846 
Te 2.0244523166 6.6727151984 4.8449835049 
Te -0.0000000000 1.3036401118 9.0051096545 
Te 0.0000000000 3.4467783256 6.0456514114 
Te 2.0244523166 4.5295769846 7.8044417480 
Te 0.0000000000 3.4467783256 0.8793951683 
Te 2.0244523166 4.5295769846 12.9706979911 
K_POINTS {automatic}
  8 8 4  0 0 0
CELL_PARAMETERS {angstrom}
2.02445231251649 -7.97635530939545 0.00000000000000
2.02445231251649 7.97635530939545 0.00000000000000
0.00000000000000 0.00000000000000 13.85009315609958
