&CONTROL
  calculation='scf'
  pseudo_dir = 'pseudo',
  disk_io = "none"
  tstress = .true.
  tprnfor = .true.
 /
&SYSTEM
  ibrav=0,
  nat=12,
  ntyp=2,
  ecutwfc=80,
  ecutrho=800,
  occupations='smearing',
  smearing='mp',
  degauss=0.003,
 /
&ELECTRONS
  conv_thr =  1d-10
  mixing_beta = 0.7
 /
ATOMIC_SPECIES
  Zr      91.22      Zr.pbe-spn-kjpaw_psl.1.0.0.UPF
  Te      127.60     Te.pbe-n-kjpaw_psl.1.0.0.UPF
ATOMIC_POSITIONS {angstrom}
Zr 0.0000000000 4.9555696138 3.4625232903 
Zr 2.0244523166 3.0207856964 10.3875698700 
Te 2.0244523166 2.7500501990 3.4625232903 
Te 0.0000000000 5.2263051112 10.3875698700 
Te 2.0244523166 6.6770676791 2.0830340749 
Te 0.0000000000 1.2992876312 11.7670590845 
Te 2.0244523166 6.6770676791 4.8420125048 
Te 0.0000000000 1.2992876312 9.0080806546 
Te -0.0000000000 3.4635289185 6.0616326792 
Te 2.0244523166 4.5128263917 7.7884604802 
Te -0.0000000000 3.4635289185 0.8634139005 
Te 2.0244523166 4.5128263917 12.9866792589 
K_POINTS {automatic}
  8 8 4  0 0 0
CELL_PARAMETERS {angstrom}
2.02445231251649 -7.97635530939545 0.00000000000000
2.02445231251649 7.97635530939545 0.00000000000000
0.00000000000000 0.00000000000000 13.85009315609958
