&CONTROL
  calculation='scf'
  pseudo_dir = 'pseudo',
  disk_io = "none"
  tstress = .true.
  tprnfor = .true.
 /
&SYSTEM
  ibrav=0,
  nat=12,
  ntyp=2,
  ecutwfc=80,
  ecutrho=800,
  occupations='smearing',
  smearing='mp',
  degauss=0.003,
 /
&ELECTRONS
  conv_thr =  1d-10
  mixing_beta = 0.7
 /
ATOMIC_SPECIES
  Zr      91.22      Zr.pbe-spn-kjpaw_psl.1.0.0.UPF
  Te      127.60     Te.pbe-n-kjpaw_psl.1.0.0.UPF
ATOMIC_POSITIONS {angstrom}
Zr 0.0000000000 4.9667249467 3.4625232903 
Zr 2.0244523166 3.0096303635 10.3875698700 
Te 2.0244523166 2.7502743802 3.4625232903 
Te 0.0000000000 5.2260809301 10.3875698700 
Te 2.0244523166 6.6719897849 2.0795679082 
Te -0.0000000000 1.3043655253 11.7705252512 
Te 2.0244523166 6.6719897849 4.8454786715 
Te -0.0000000000 1.3043655253 9.0046144878 
Te 0.0000000000 3.4439865602 6.0429878668 
Te 2.0244523166 4.5323687501 7.8071052926 
Te 0.0000000000 3.4439865602 0.8820587129 
Te 2.0244523166 4.5323687501 12.9680344465 
K_POINTS {automatic}
  8 8 4  0 0 0
CELL_PARAMETERS {angstrom}
2.02445231251649 -7.97635530939545 0.00000000000000
2.02445231251649 7.97635530939545 0.00000000000000
0.00000000000000 0.00000000000000 13.85009315609958
