&CONTROL
  calculation='scf'
  pseudo_dir = 'pseudo',
  disk_io = "none"
  tstress = .true.
  tprnfor = .true.
 /
&SYSTEM
  ibrav=0,
  nat=12,
  ntyp=2,
  ecutwfc=80,
  ecutrho=800,
  occupations='smearing',
  smearing='mp',
  degauss=0.003,
 /
&ELECTRONS
  conv_thr =  1d-10
  mixing_beta = 0.7
 /
ATOMIC_SPECIES
  Zr      91.22      Zr.pbe-spn-kjpaw_psl.1.0.0.UPF
  Te      127.60     Te.pbe-n-kjpaw_psl.1.0.0.UPF
ATOMIC_POSITIONS {angstrom}
Zr 0.0000000000 4.9571632328 3.4625232903 
Zr 2.0244523166 3.0191920774 10.3875698700 
Te 2.0244523166 2.7500822249 3.4625232903 
Te 0.0000000000 5.2262730853 10.3875698700 
Te 2.0244523166 6.6763422656 2.0825389082 
Te 0.0000000000 1.3000130446 11.7675542512 
Te 2.0244523166 6.6763422656 4.8425076715 
Te 0.0000000000 1.3000130446 9.0075854879 
Te -0.0000000000 3.4607371530 6.0589691346 
Te 2.0244523166 4.5156181572 7.7911240248 
Te -0.0000000000 3.4607371530 0.8660774451 
Te 2.0244523166 4.5156181572 12.9840157143 
K_POINTS {automatic}
  8 8 4  0 0 0
CELL_PARAMETERS {angstrom}
2.02445231251649 -7.97635530939545 0.00000000000000
2.02445231251649 7.97635530939545 0.00000000000000
0.00000000000000 0.00000000000000 13.85009315609958
