&CONTROL
  calculation='scf'
  pseudo_dir = 'pseudo',
  disk_io = "none"
  tstress = .true.
  tprnfor = .true.
 /
&SYSTEM
  ibrav=0,
  nat=12,
  ntyp=2,
  ecutwfc=80,
  ecutrho=800,
  occupations='smearing',
  smearing='mp',
  degauss=0.003,
 /
&ELECTRONS
  conv_thr =  1d-10
  mixing_beta = 0.7
 /
ATOMIC_SPECIES
  Zr      91.22      Zr.pbe-spn-kjpaw_psl.1.0.0.UPF
  Te      127.60     Te.pbe-n-kjpaw_psl.1.0.0.UPF
ATOMIC_POSITIONS {angstrom}
Zr 0.0000000000 4.9284780911 3.4625232903 
Zr 2.0244523166 3.0478772192 10.3875698700 
Te 2.0244523166 2.7495057592 3.4625232903 
Te 0.0000000000 5.2268495510 10.3875698700 
Te 2.0244523166 6.6893997076 2.0914519084 
Te 0.0000000000 1.2869556026 11.7586412510 
Te 2.0244523166 6.6893997076 4.8335946713 
Te -0.0000000000 1.2869556026 9.0164984881 
Te -0.0000000000 3.5109889317 6.1069129381 
Te 2.0244523166 4.4653663785 7.7431802213 
Te -0.0000000000 3.5109889317 0.8181336416 
Te 2.0244523166 4.4653663785 13.0319595178 
K_POINTS {automatic}
  8 8 4  0 0 0
CELL_PARAMETERS {angstrom}
2.02445231251649 -7.97635530939545 0.00000000000000
2.02445231251649 7.97635530939545 0.00000000000000
0.00000000000000 0.00000000000000 13.85009315609958
