&CONTROL
  calculation='scf'
  pseudo_dir = 'pseudo',
  disk_io = "none"
  tstress = .true.
  tprnfor = .true.
 /
&SYSTEM
  ibrav=0,
  nat=12,
  ntyp=2,
  ecutwfc=80,
  ecutrho=800,
  occupations='smearing',
  smearing='mp',
  degauss=0.003,
 /
&ELECTRONS
  conv_thr =  1d-10
  mixing_beta = 0.7
 /
ATOMIC_SPECIES
  Zr      91.22      Zr.pbe-spn-kjpaw_psl.1.0.0.UPF
  Te      127.60     Te.pbe-n-kjpaw_psl.1.0.0.UPF
ATOMIC_POSITIONS {angstrom}
Zr -0.0000000000 4.9236972341 3.4625232903 
Zr 2.0244523166 3.0526580761 10.3875698700 
Te 2.0244523166 2.7494096816 3.4625232903 
Te -0.0000000000 5.2269456286 10.3875698700 
Te 2.0244523166 6.6915759480 2.0929374084 
Te -0.0000000000 1.2847793622 11.7571557509 
Te 2.0244523166 6.6915759480 4.8321091713 
Te -0.0000000000 1.2847793622 9.0179839881 
Te -0.0000000000 3.5193642281 6.1149035720 
Te 2.0244523166 4.4569910821 7.7351895874 
Te -0.0000000000 3.5193642281 0.8101430077 
Te 2.0244523166 4.4569910821 13.0399501517 
K_POINTS {automatic}
  8 8 4  0 0 0
CELL_PARAMETERS {angstrom}
2.02445231251649 -7.97635530939545 0.00000000000000
2.02445231251649 7.97635530939545 0.00000000000000
0.00000000000000 0.00000000000000 13.85009315609958
