&CONTROL
  calculation='scf'
  pseudo_dir = 'pseudo',
  disk_io = "none"
  tstress = .true.
  tprnfor = .true.
 /
&SYSTEM
  ibrav=0,
  nat=12,
  ntyp=2,
  ecutwfc=80,
  ecutrho=800,
  occupations='smearing',
  smearing='mp',
  degauss=0.003,
 /
&ELECTRONS
  conv_thr =  1d-10
  mixing_beta = 0.7
 /
ATOMIC_SPECIES
  Zr      91.22      Zr.pbe-spn-kjpaw_psl.1.0.0.UPF
  Te      127.60     Te.pbe-n-kjpaw_psl.1.0.0.UPF
ATOMIC_POSITIONS {angstrom}
Zr 0.0000000000 4.9332589480 3.4625232903 
Zr 2.0244523166 3.0430963622 10.3875698700 
Te 2.0244523166 2.7496018368 3.4625232903 
Te 0.0000000000 5.2267534734 10.3875698700 
Te 2.0244523166 6.6872234673 2.0899664084 
Te -0.0000000000 1.2891318429 11.7601267510 
Te 2.0244523166 6.6872234673 4.8350801713 
Te -0.0000000000 1.2891318429 9.0150129881 
Te -0.0000000000 3.5026136352 6.0989223041 
Te 2.0244523166 4.4737416750 7.7511708552 
Te -0.0000000000 3.5026136352 0.8261242756 
Te 2.0244523166 4.4737416750 13.0239688838 
K_POINTS {automatic}
  8 8 4  0 0 0
CELL_PARAMETERS {angstrom}
2.02445231251649 -7.97635530939545 0.00000000000000
2.02445231251649 7.97635530939545 0.00000000000000
0.00000000000000 0.00000000000000 13.85009315609958
