&CONTROL
  calculation='scf'
  pseudo_dir = 'pseudo',
  disk_io = "none"
  tstress = .true.
  tprnfor = .true.
 /
&SYSTEM
  ibrav=0,
  nat=12,
  ntyp=2,
  ecutwfc=80,
  ecutrho=800,
  occupations='smearing',
  smearing='mp',
  degauss=0.003,
 /
&ELECTRONS
  conv_thr =  1d-10
  mixing_beta = 0.7
 /
ATOMIC_SPECIES
  Zr      91.22      Zr.pbe-spn-kjpaw_psl.1.0.0.UPF
  Te      127.60     Te.pbe-n-kjpaw_psl.1.0.0.UPF
ATOMIC_POSITIONS {angstrom}
Zr 0.0000000000 4.9189163772 3.4625232903 
Zr 2.0244523166 3.0574389331 10.3875698700 
Te 2.0244523166 2.7493136040 3.4625232903 
Te 0.0000000000 5.2270417063 10.3875698700 
Te 2.0244523166 6.6937521883 2.0944229085 
Te -0.0000000000 1.2826031219 11.7556702509 
Te 2.0244523166 6.6937521883 4.8306236712 
Te -0.0000000000 1.2826031219 9.0194694882 
Te -0.0000000000 3.5277395246 6.1228942059 
Te 2.0244523166 4.4486157857 7.7271989535 
Te -0.0000000000 3.5277395246 0.8021523738 
Te 2.0244523166 4.4486157857 13.0479407856 
K_POINTS {automatic}
  8 8 4  0 0 0
CELL_PARAMETERS {angstrom}
2.02445231251649 -7.97635530939545 0.00000000000000
2.02445231251649 7.97635530939545 0.00000000000000
0.00000000000000 0.00000000000000 13.85009315609958
