&CONTROL
  calculation='scf'
  pseudo_dir = 'pseudo',
  disk_io = "none"
  tstress = .true.
  tprnfor = .true.
 /
&SYSTEM
  ibrav=0,
  nat=12,
  ntyp=2,
  ecutwfc=80,
  ecutrho=800,
  occupations='smearing',
  smearing='mp',
  degauss=0.003,
 /
&ELECTRONS
  conv_thr =  1d-10
  mixing_beta = 0.7
 /
ATOMIC_SPECIES
  Zr      91.22      Zr.pbe-spn-kjpaw_psl.1.0.0.UPF
  Te      127.60     Te.pbe-n-kjpaw_psl.1.0.0.UPF
ATOMIC_POSITIONS {angstrom}
Zr 0.0000000000 4.9157291392 3.4625232903 
Zr 2.0244523166 3.0606261710 10.3875698700 
Te 2.0244523166 2.7492495522 3.4625232903 
Te 0.0000000000 5.2271057580 10.3875698700 
Te 2.0244523166 6.6952030152 2.0954132418 
Te -0.0000000000 1.2811522950 11.7546799176 
Te 2.0244523166 6.6952030152 4.8296333379 
Te -0.0000000000 1.2811522950 9.0204598215 
Te -0.0000000000 3.5333230555 6.1282212952 
Te 2.0244523166 4.4430322547 7.7218718642 
Te -0.0000000000 3.5333230555 0.7968252845 
Te 2.0244523166 4.4430322547 13.0532678748 
K_POINTS {automatic}
  8 8 4  0 0 0
CELL_PARAMETERS {angstrom}
2.02445231251649 -7.97635530939545 0.00000000000000
2.02445231251649 7.97635530939545 0.00000000000000
0.00000000000000 0.00000000000000 13.85009315609958
