&CONTROL
  calculation='scf'
  pseudo_dir = 'pseudo',
  disk_io = "none"
  tstress = .true.
  tprnfor = .true.
 /
&SYSTEM
  ibrav=0,
  nat=12,
  ntyp=2,
  ecutwfc=80,
  ecutrho=800,
  occupations='smearing',
  smearing='mp',
  degauss=0.003,
 /
&ELECTRONS
  conv_thr =  1d-10
  mixing_beta = 0.7
 /
ATOMIC_SPECIES
  Zr      91.22      Zr.pbe-spn-kjpaw_psl.1.0.0.UPF
  Te      127.60     Te.pbe-n-kjpaw_psl.1.0.0.UPF
ATOMIC_POSITIONS {angstrom}
Zr 0.0000000000 5.0272824682 3.4625232903 
Zr 2.0244523166 2.9490728420 10.3875698700 
Te 2.0244523166 2.7514913633 3.4625232903 
Te 0.0000000000 5.2248639469 10.3875698700 
Te 2.0244523166 6.6444240740 2.0607515744 
Te 0.0000000000 1.3319312363 11.7893415850 
Te 2.0244523166 6.6444240740 4.8642950053 
Te 0.0000000000 1.3319312363 8.9857981541 
Te 0.0000000000 3.3378994719 5.9417731706 
Te 2.0244523166 4.6384558383 7.9083199888 
Te 0.0000000000 3.3378994719 0.9832734091 
Te 2.0244523166 4.6384558383 12.8668197503 
K_POINTS {automatic}
  8 8 4  0 0 0
CELL_PARAMETERS {angstrom}
2.02445231251649 -7.97635530939545 0.00000000000000
2.02445231251649 7.97635530939545 0.00000000000000
0.00000000000000 0.00000000000000 13.85009315609958
