&CONTROL
  calculation='scf'
  pseudo_dir = 'pseudo',
  disk_io = "none"
  tstress = .true.
  tprnfor = .true.
 /
&SYSTEM
  ibrav=0,
  nat=12,
  ntyp=2,
  ecutwfc=80,
  ecutrho=800,
  occupations='smearing',
  smearing='mp',
  degauss=0.003,
 /
&ELECTRONS
  conv_thr =  1d-10
  mixing_beta = 0.7
 /
ATOMIC_SPECIES
  Zr      91.22      Zr.pbe-spn-kjpaw_psl.1.0.0.UPF
  Te      127.60     Te.pbe-n-kjpaw_psl.1.0.0.UPF
ATOMIC_POSITIONS {angstrom}
Zr 0.0000000000 5.0336569441 3.4625232903 
Zr 2.0244523166 2.9426983661 10.3875698700 
Te 2.0244523166 2.7516194668 3.4625232903 
Te 0.0000000000 5.2247358434 10.3875698700 
Te 2.0244523166 6.6415224202 2.0587709077 
Te 0.0000000000 1.3348328900 11.7913222517 
Te 2.0244523166 6.6415224202 4.8662756720 
Te 0.0000000000 1.3348328900 8.9838174874 
Te 0.0000000000 3.3267324100 5.9311189920 
Te 2.0244523166 4.6496229003 7.9189741674 
Te 0.0000000000 3.3267324100 0.9939275877 
Te 2.0244523166 4.6496229003 12.8561655717 
K_POINTS {automatic}
  8 8 4  0 0 0
CELL_PARAMETERS {angstrom}
2.02445231251649 -7.97635530939545 0.00000000000000
2.02445231251649 7.97635530939545 0.00000000000000
0.00000000000000 0.00000000000000 13.85009315609958
