&CONTROL
  calculation='scf'
  pseudo_dir = 'pseudo',
  disk_io = "none"
  tstress = .true.
  tprnfor = .true.
 /
&SYSTEM
  ibrav=0,
  nat=12,
  ntyp=2,
  ecutwfc=80,
  ecutrho=800,
  occupations='smearing',
  smearing='mp',
  degauss=0.003,
 /
&ELECTRONS
  conv_thr =  1d-10
  mixing_beta = 0.7
 /
ATOMIC_SPECIES
  Zr      91.22      Zr.pbe-spn-kjpaw_psl.1.0.0.UPF
  Te      127.60     Te.pbe-n-kjpaw_psl.1.0.0.UPF
ATOMIC_POSITIONS {angstrom}
Zr 0.0000000000 4.9874419935 3.4625232903 
Zr 2.0244523166 2.9889133167 10.3875698700 
Te 2.0244523166 2.7506907165 3.4625232903 
Te 0.0000000000 5.2256645937 10.3875698700 
Te 2.0244523166 6.6625594101 2.0731307413 
Te 0.0000000000 1.3137959001 11.7769624180 
Te 2.0244523166 6.6625594101 4.8519158384 
Te 0.0000000000 1.3137959001 8.9981773210 
Te 0.0000000000 3.4076936089 6.0083617865 
Te 2.0244523166 4.5686617013 7.8417313729 
Te 0.0000000000 3.4076936089 0.9166847932 
Te 2.0244523166 4.5686617013 12.9334083662 
K_POINTS {automatic}
  8 8 4  0 0 0
CELL_PARAMETERS {angstrom}
2.02445231251649 -7.97635530939545 0.00000000000000
2.02445231251649 7.97635530939545 0.00000000000000
0.00000000000000 0.00000000000000 13.85009315609958
