&CONTROL
  calculation='scf'
  pseudo_dir = 'pseudo',
  disk_io = "none"
  tstress = .true.
  tprnfor = .true.
 /
&SYSTEM
  ibrav=0,
  nat=12,
  ntyp=2,
  ecutwfc=80,
  ecutrho=800,
  occupations='smearing',
  smearing='mp',
  degauss=0.003,
 /
&ELECTRONS
  conv_thr =  1d-10
  mixing_beta = 0.7
 /
ATOMIC_SPECIES
  Zr      91.22      Zr.pbe-spn-kjpaw_psl.1.0.0.UPF
  Te      127.60     Te.pbe-n-kjpaw_psl.1.0.0.UPF
ATOMIC_POSITIONS {angstrom}
Zr 0.0000000000 4.9938164695 3.4625232903 
Zr 2.0244523166 2.9825388407 10.3875698700 
Te 2.0244523166 2.7508188200 3.4625232903 
Te 0.0000000000 5.2255364902 10.3875698700 
Te 2.0244523166 6.6596577563 2.0711500746 
Te 0.0000000000 1.3166975539 11.7789430848 
Te 2.0244523166 6.6596577563 4.8538965051 
Te 0.0000000000 1.3166975539 8.9961966543 
Te 0.0000000000 3.3965265470 5.9977076079 
Te 2.0244523166 4.5798287632 7.8523855515 
Te 0.0000000000 3.3965265470 0.9273389718 
Te 2.0244523166 4.5798287632 12.9227541876 
K_POINTS {automatic}
  8 8 4  0 0 0
CELL_PARAMETERS {angstrom}
2.02445231251649 -7.97635530939545 0.00000000000000
2.02445231251649 7.97635530939545 0.00000000000000
0.00000000000000 0.00000000000000 13.85009315609958
