&CONTROL
  calculation='scf'
  pseudo_dir = 'pseudo',
  disk_io = "none"
  tstress = .true.
  tprnfor = .true.
 /
&SYSTEM
  ibrav=0,
  nat=12,
  ntyp=2,
  ecutwfc=80,
  ecutrho=800,
  occupations='smearing',
  smearing='mp',
  degauss=0.003,
 /
&ELECTRONS
  conv_thr =  1d-10
  mixing_beta = 0.7
 /
ATOMIC_SPECIES
  Zr      91.22      Zr.pbe-spn-kjpaw_psl.1.0.0.UPF
  Te      127.60     Te.pbe-n-kjpaw_psl.1.0.0.UPF
ATOMIC_POSITIONS {angstrom}
Zr 0.0000000000 5.0001909454 3.4625232903 
Zr 2.0244523166 2.9761643648 10.3875698700 
Te 2.0244523166 2.7509469235 3.4625232903 
Te 0.0000000000 5.2254083867 10.3875698700 
Te 2.0244523166 6.6567561026 2.0691694079 
Te 0.0000000000 1.3195992077 11.7809237515 
Te 2.0244523166 6.6567561026 4.8558771718 
Te 0.0000000000 1.3195992077 8.9942159876 
Te 0.0000000000 3.3853594851 5.9870534294 
Te 2.0244523166 4.5909958252 7.8630397300 
Te 0.0000000000 3.3853594851 0.9379931503 
Te 2.0244523166 4.5909958252 12.9121000091 
K_POINTS {automatic}
  8 8 4  0 0 0
CELL_PARAMETERS {angstrom}
2.02445231251649 -7.97635530939545 0.00000000000000
2.02445231251649 7.97635530939545 0.00000000000000
0.00000000000000 0.00000000000000 13.85009315609958
