&CONTROL
  calculation='scf'
  pseudo_dir = 'pseudo',
  disk_io = "none"
  tstress = .true.
  tprnfor = .true.
 /
&SYSTEM
  ibrav=0,
  nat=12,
  ntyp=2,
  ecutwfc=80,
  ecutrho=800,
  occupations='smearing',
  smearing='mp',
  degauss=0.003,
 /
&ELECTRONS
  conv_thr =  1d-10
  mixing_beta = 0.7
 /
ATOMIC_SPECIES
  Zr      91.22      Zr.pbe-spn-kjpaw_psl.1.0.0.UPF
  Te      127.60     Te.pbe-n-kjpaw_psl.1.0.0.UPF
ATOMIC_POSITIONS {angstrom}
Zr 0.0000000000 5.0639357048 3.4625232903 
Zr 2.0244523166 2.9124196054 10.3875698700 
Te 2.0244523166 2.7522279584 3.4625232903 
Te 0.0000000000 5.2241273518 10.3875698700 
Te 2.0244523166 6.6277395647 2.0493627408 
Te 0.0000000000 1.3486157455 11.8007304186 
Te 2.0244523166 6.6277395647 4.8756838389 
Te 0.0000000000 1.3486157455 8.9744093205 
Te 0.0000000000 3.2736888658 5.8805116439 
Te 2.0244523166 4.7026664444 7.9695815155 
Te 0.0000000000 3.2736888658 1.0445349358 
Te 2.0244523166 4.7026664444 12.8055582236 
K_POINTS {automatic}
  8 8 4  0 0 0
CELL_PARAMETERS {angstrom}
2.02445231251649 -7.97635530939545 0.00000000000000
2.02445231251649 7.97635530939545 0.00000000000000
0.00000000000000 0.00000000000000 13.85009315609958
