&CONTROL
  calculation='scf'
  pseudo_dir = 'pseudo',
  disk_io = "none"
  tstress = .true.
  tprnfor = .true.
 /
&SYSTEM
  ibrav=0,
  nat=12,
  ntyp=2,
  ecutwfc=80,
  ecutrho=800,
  occupations='smearing',
  smearing='mp',
  degauss=0.003,
 /
&ELECTRONS
  conv_thr =  1d-10
  mixing_beta = 0.7
 /
ATOMIC_SPECIES
  Zr      91.22      Zr.pbe-spn-kjpaw_psl.1.0.0.UPF
  Te      127.60     Te.pbe-n-kjpaw_psl.1.0.0.UPF
ATOMIC_POSITIONS {angstrom}
Zr 0.0000000000 5.0081590403 3.4625232903 
Zr 2.0244523166 2.9681962699 10.3875698700 
Te 2.0244523166 2.7511070529 3.4625232903 
Te 0.0000000000 5.2252482574 10.3875698700 
Te 2.0244523166 6.6531290353 2.0666935745 
Te 0.0000000000 1.3232262749 11.7833995849 
Te 2.0244523166 6.6531290353 4.8583530052 
Te 0.0000000000 1.3232262749 8.9917401542 
Te 0.0000000000 3.3714006577 5.9737357062 
Te 2.0244523166 4.6049546526 7.8763574532 
Te 0.0000000000 3.3714006577 0.9513108735 
Te 2.0244523166 4.6049546526 12.8987822859 
K_POINTS {automatic}
  8 8 4  0 0 0
CELL_PARAMETERS {angstrom}
2.02445231251649 -7.97635530939545 0.00000000000000
2.02445231251649 7.97635530939545 0.00000000000000
0.00000000000000 0.00000000000000 13.85009315609958
