&CONTROL
  calculation='scf'
  pseudo_dir = 'pseudo',
  disk_io = "none"
  tstress = .true.
  tprnfor = .true.
 /
&SYSTEM
  ibrav=0,
  nat=12,
  ntyp=2,
  ecutwfc=80,
  ecutrho=800,
  occupations='smearing',
  smearing='mp',
  degauss=0.003,
 /
&ELECTRONS
  conv_thr =  1d-10
  mixing_beta = 0.7
 /
ATOMIC_SPECIES
  Zr      91.22      Zr.pbe-spn-kjpaw_psl.1.0.0.UPF
  Te      127.60     Te.pbe-n-kjpaw_psl.1.0.0.UPF
ATOMIC_POSITIONS {angstrom}
Zr 0.0000000000 5.0416250390 3.4625232903 
Zr 2.0244523166 2.9347302712 10.3875698700 
Te 2.0244523166 2.7517795962 3.4625232903 
Te 0.0000000000 5.2245757140 10.3875698700 
Te 2.0244523166 6.6378953529 2.0562950743 
Te 0.0000000000 1.3384599573 11.7937980851 
Te 2.0244523166 6.6378953529 4.8687515054 
Te 0.0000000000 1.3384599573 8.9813416540 
Te 0.0000000000 3.3127735826 5.9178012688 
Te 2.0244523166 4.6635817277 7.9322918906 
Te 0.0000000000 3.3127735826 1.0072453109 
Te 2.0244523166 4.6635817277 12.8428478485 
K_POINTS {automatic}
  8 8 4  0 0 0
CELL_PARAMETERS {angstrom}
2.02445231251649 -7.97635530939545 0.00000000000000
2.02445231251649 7.97635530939545 0.00000000000000
0.00000000000000 0.00000000000000 13.85009315609958
