&CONTROL
  calculation='scf'
  pseudo_dir = 'pseudo',
  disk_io = "none"
  tstress = .true.
  tprnfor = .true.
 /
&SYSTEM
  ibrav=0,
  nat=12,
  ntyp=2,
  ecutwfc=80,
  ecutrho=800,
  occupations='smearing',
  smearing='mp',
  degauss=0.003,
 /
&ELECTRONS
  conv_thr =  1d-10
  mixing_beta = 0.7
 /
ATOMIC_SPECIES
  Zr      91.22      Zr.pbe-spn-kjpaw_psl.1.0.0.UPF
  Te      127.60     Te.pbe-n-kjpaw_psl.1.0.0.UPF
ATOMIC_POSITIONS {angstrom}
Zr 0.0000000000 5.0097526593 3.4625232903 
Zr 2.0244523166 2.9666026509 10.3875698700 
Te 2.0244523166 2.7511390787 3.4625232903 
Te 0.0000000000 5.2252162315 10.3875698700 
Te 2.0244523166 6.6524036219 2.0661984079 
Te 0.0000000000 1.3239516883 11.7838947515 
Te 2.0244523166 6.6524036219 4.8588481718 
Te 0.0000000000 1.3239516883 8.9912449876 
Te 0.0000000000 3.3686088922 5.9710721616 
Te 2.0244523166 4.6077464180 7.8790209978 
Te 0.0000000000 3.3686088922 0.9539744181 
Te 2.0244523166 4.6077464180 12.8961187413 
K_POINTS {automatic}
  8 8 4  0 0 0
CELL_PARAMETERS {angstrom}
2.02445231251649 -7.97635530939545 0.00000000000000
2.02445231251649 7.97635530939545 0.00000000000000
0.00000000000000 0.00000000000000 13.85009315609958
