&CONTROL
  calculation='scf'
  pseudo_dir = '../pseudo',
  disk_io = "none"
  tstress = .true.
  tprnfor = .true.
 /
&SYSTEM
  ibrav=0,
  nat=12,
  ntyp=2,
  ecutwfc=80,
  ecutrho=800,
  occupations='smearing',
  smearing='mp',
  degauss=0.003,
 /
&ELECTRONS
  conv_thr =  1d-10
  mixing_beta = 0.7
 /
ATOMIC_SPECIES
  Zr      91.22      Zr.pbe-spn-kjpaw_psl.1.0.0.UPF
  Te      127.60     Te.pbe-n-kjpaw_psl.1.0.0.UPF
ATOMIC_POSITIONS {angstrom}
Zr 0.0000000000 4.9842547556 3.4625232903 
Zr 2.0244523166 2.9921005547 10.3875698700 
Te 2.0244523166 2.7506266648 3.4625232903 
Te 0.0000000000 5.2257286455 10.3875698700 
Te 2.0244523166 6.6640102370 2.0741210747 
Te 0.0000000000 1.3123450732 11.7759720847 
Te 2.0244523166 6.6640102370 4.8509255050 
Te 0.0000000000 1.3123450732 8.9991676544 
Te 0.0000000000 3.4132771399 6.0136888758 
Te 2.0244523166 4.5630781704 7.8364042836 
Te 0.0000000000 3.4132771399 0.9113577039 
Te 2.0244523166 4.5630781704 12.9387354555 
K_POINTS {automatic}
  8 8 4  0 0 0
CELL_PARAMETERS {angstrom}
2.02445231251649 -7.97635530939545 0.00000000000000
2.02445231251649 7.97635530939545 0.00000000000000
0.00000000000000 0.00000000000000 13.85009315609958
