&CONTROL
  calculation='scf'
  pseudo_dir = 'pseudo',
  disk_io = "none"
  tstress = .true.
  tprnfor = .true.
 /
&SYSTEM
  ibrav=0,
  nat=12,
  ntyp=2,
  ecutwfc=80,
  ecutrho=800,
  occupations='smearing',
  smearing='mp',
  degauss=0.003,
 /
&ELECTRONS
  conv_thr =  1d-10
  mixing_beta = 0.7
 /
ATOMIC_SPECIES
  Zr      91.22      Zr.pbe-spn-kjpaw_psl.1.0.0.UPF
  Te      127.60     Te.pbe-n-kjpaw_psl.1.0.0.UPF
ATOMIC_POSITIONS {angstrom}
Zr 0.0000000000 4.9730994227 3.4625232903 
Zr 2.0244523166 3.0032558876 10.3875698700 
Te 2.0244523166 2.7504024836 3.4625232903 
Te 0.0000000000 5.2259528266 10.3875698700 
Te 2.0244523166 6.6690881311 2.0775872414 
Te 0.0000000000 1.3072671791 11.7725059180 
Te 2.0244523166 6.6690881311 4.8474593383 
Te -0.0000000000 1.3072671791 9.0026338211 
Te -0.0000000000 3.4328194982 6.0323336882 
Te 2.0244523166 4.5435358120 7.8177594712 
Te -0.0000000000 3.4328194982 0.8927128915 
Te 2.0244523166 4.5435358120 12.9573802679 
K_POINTS {automatic}
  8 8 4  0 0 0
CELL_PARAMETERS {angstrom}
2.02445231251649 -7.97635530939545 0.00000000000000
2.02445231251649 7.97635530939545 0.00000000000000
0.00000000000000 0.00000000000000 13.85009315609958
