&CONTROL
  calculation='scf'
  pseudo_dir = 'pseudo',
  disk_io = "none"
  tstress = .true.
  tprnfor = .true.
 /
&SYSTEM
  ibrav=0,
  nat=12,
  ntyp=2,
  ecutwfc=80,
  ecutrho=800,
  occupations='smearing',
  smearing='mp',
  degauss=0.003,
 /
&ELECTRONS
  conv_thr =  1d-10
  mixing_beta = 0.7
 /
ATOMIC_SPECIES
  Zr      91.22      Zr.pbe-spn-kjpaw_psl.1.0.0.UPF
  Te      127.60     Te.pbe-n-kjpaw_psl.1.0.0.UPF
ATOMIC_POSITIONS {angstrom}
Zr 0.0000000000 4.9460078999 3.4625232903 
Zr 2.0244523166 3.0303474103 10.3875698700 
Te 2.0244523166 2.7498580438 3.4625232903 
Te 0.0000000000 5.2264972664 10.3875698700 
Te 2.0244523166 6.6814201597 2.0860050750 
Te -0.0000000000 1.2949351505 11.7640880844 
Te 2.0244523166 6.6814201597 4.8390415047 
Te -0.0000000000 1.2949351505 9.0110516547 
Te 0.0000000000 3.4802795114 6.0776139470 
Te 2.0244523166 4.4960757988 7.7724792123 
Te -0.0000000000 3.4802795114 0.8474326326 
Te 2.0244523166 4.4960757988 13.0026605267 
K_POINTS {automatic}
  8 8 4  0 0 0
CELL_PARAMETERS {angstrom}
2.02445231251649 -7.97635530939545 0.00000000000000
2.02445231251649 7.97635530939545 0.00000000000000
0.00000000000000 0.00000000000000 13.85009315609958
