&CONTROL
  calculation='scf'
  pseudo_dir = 'pseudo',
  disk_io = "none"
  tstress = .true.
  tprnfor = .true.
 /
&SYSTEM
  ibrav=0,
  nat=12,
  ntyp=2,
  ecutwfc=80,
  ecutrho=800,
  occupations='smearing',
  smearing='mp',
  degauss=0.003,
 /
&ELECTRONS
  conv_thr =  1d-10
  mixing_beta = 0.7
 /
ATOMIC_SPECIES
  Zr      91.22      Zr.pbe-spn-kjpaw_psl.1.0.0.UPF
  Te      127.60     Te.pbe-n-kjpaw_psl.1.0.0.UPF
ATOMIC_POSITIONS {angstrom}
Zr 0.0000000000 4.9300717100 3.4625232903 
Zr 2.0244523166 3.0462836002 10.3875698700 
Te 2.0244523166 2.7495377851 3.4625232903 
Te 0.0000000000 5.2268175251 10.3875698700 
Te 2.0244523166 6.6886742942 2.0909567417 
Te 0.0000000000 1.2876810160 11.7591364177 
Te 2.0244523166 6.6886742942 4.8340898380 
Te -0.0000000000 1.2876810160 9.0160033214 
Te -0.0000000000 3.5081971662 6.1042493934 
Te 2.0244523166 4.4681581440 7.7458437660 
Te -0.0000000000 3.5081971662 0.8207971863 
Te 2.0244523166 4.4681581440 13.0292959731 
K_POINTS {automatic}
  8 8 4  0 0 0
CELL_PARAMETERS {angstrom}
2.02445231251649 -7.97635530939545 0.00000000000000
2.02445231251649 7.97635530939545 0.00000000000000
0.00000000000000 0.00000000000000 13.85009315609958
