&CONTROL
  calculation='scf'
  pseudo_dir = 'pseudo',
  disk_io = "none"
  tstress = .true.
  tprnfor = .true.
 /
&SYSTEM
  ibrav=0,
  nat=12,
  ntyp=2,
  ecutwfc=80,
  ecutrho=800,
  occupations='smearing',
  smearing='mp',
  degauss=0.003,
 /
&ELECTRONS
  conv_thr =  1d-10
  mixing_beta = 0.7
 /
ATOMIC_SPECIES
  Zr      91.22      Zr.pbe-spn-kjpaw_psl.1.0.0.UPF
  Te      127.60     Te.pbe-n-kjpaw_psl.1.0.0.UPF
ATOMIC_POSITIONS {angstrom}
Zr 0.0000000000 4.9364461860 3.4625232903 
Zr 2.0244523166 3.0399091242 10.3875698700 
Te 2.0244523166 2.7496658886 3.4625232903 
Te 0.0000000000 5.2266894217 10.3875698700 
Te 2.0244523166 6.6857726404 2.0889760750 
Te -0.0000000000 1.2905826698 11.7611170844 
Te 2.0244523166 6.6857726404 4.8360705047 
Te -0.0000000000 1.2905826698 9.0140226547 
Te -0.0000000000 3.4970301043 6.0935952149 
Te 2.0244523166 4.4793252059 7.7564979445 
Te -0.0000000000 3.4970301043 0.8314513648 
Te 2.0244523166 4.4793252059 13.0186417946 
K_POINTS {automatic}
  8 8 4  0 0 0
CELL_PARAMETERS {angstrom}
2.02445231251649 -7.97635530939545 0.00000000000000
2.02445231251649 7.97635530939545 0.00000000000000
0.00000000000000 0.00000000000000 13.85009315609958
