&CONTROL
  calculation='scf'
  pseudo_dir = 'pseudo',
  disk_io = "none"
  tstress = .true.
  tprnfor = .true.
 /
&SYSTEM
  ibrav=0,
  nat=12,
  ntyp=2,
  ecutwfc=80,
  ecutrho=800,
  occupations='smearing',
  smearing='mp',
  degauss=0.003,
 /
&ELECTRONS
  conv_thr =  1d-10
  mixing_beta = 0.7
 /
ATOMIC_SPECIES
  Zr      91.22      Zr.pbe-spn-kjpaw_psl.1.0.0.UPF
  Te      127.60     Te.pbe-n-kjpaw_psl.1.0.0.UPF
ATOMIC_POSITIONS {angstrom}
Zr -0.0000000000 4.9348525670 3.4625232903 
Zr 2.0244523166 3.0415027432 10.3875698700 
Te 2.0244523166 2.7496338627 3.4625232903 
Te 0.0000000000 5.2267214475 10.3875698700 
Te 2.0244523166 6.6864980539 2.0894712417 
Te -0.0000000000 1.2898572564 11.7606219177 
Te 2.0244523166 6.6864980539 4.8355753380 
Te -0.0000000000 1.2898572564 9.0145178214 
Te -0.0000000000 3.4998218698 6.0962587595 
Te 2.0244523166 4.4765334405 7.7538343999 
Te -0.0000000000 3.4998218698 0.8287878202 
Te 2.0244523166 4.4765334405 13.0213053392 
K_POINTS {automatic}
  8 8 4  0 0 0
CELL_PARAMETERS {angstrom}
2.02445231251649 -7.97635530939545 0.00000000000000
2.02445231251649 7.97635530939545 0.00000000000000
0.00000000000000 0.00000000000000 13.85009315609958
