&CONTROL
  calculation='scf'
  pseudo_dir = 'pseudo',
  disk_io = "none"
  tstress = .true.
  tprnfor = .true.
 /
&SYSTEM
  ibrav=0,
  nat=12,
  ntyp=2,
  ecutwfc=80,
  ecutrho=800,
  occupations='smearing',
  smearing='mp',
  degauss=0.003,
 /
&ELECTRONS
  conv_thr =  1d-10
  mixing_beta = 0.7
 /
ATOMIC_SPECIES
  Zr      91.22      Zr.pbe-spn-kjpaw_psl.1.0.0.UPF
  Te      127.60     Te.pbe-n-kjpaw_psl.1.0.0.UPF
ATOMIC_POSITIONS {angstrom}
Zr -0.0000000000 4.9109482822 3.4625232903 
Zr 2.0244523166 3.0654070280 10.3875698700 
Te 2.0244523166 2.7491534746 3.4625232903 
Te 0.0000000000 5.2272018356 10.3875698700 
Te 2.0244523166 6.6973792555 2.0968987419 
Te -0.0000000000 1.2789760547 11.7531944175 
Te 2.0244523166 6.6973792555 4.8281478378 
Te -0.0000000000 1.2789760547 9.0219453216 
Te -0.0000000000 3.5416983520 6.1362119291 
Te 2.0244523166 4.4346569582 7.7138812303 
Te -0.0000000000 3.5416983520 0.7888346506 
Te 2.0244523166 4.4346569582 13.0612585088 
K_POINTS {automatic}
  8 8 4  0 0 0
CELL_PARAMETERS {angstrom}
2.02445231251649 -7.97635530939545 0.00000000000000
2.02445231251649 7.97635530939545 0.00000000000000
0.00000000000000 0.00000000000000 13.85009315609958
