&CONTROL
  calculation='scf'
  pseudo_dir = 'pseudo',
  disk_io = "none"
  tstress = .true.
  tprnfor = .true.
 /
&SYSTEM
  ibrav=0,
  nat=12,
  ntyp=2,
  ecutwfc=80,
  ecutrho=800,
  occupations='smearing',
  smearing='mp',
  degauss=0.003,
 /
&ELECTRONS
  conv_thr =  1d-10
  mixing_beta = 0.7
 /
ATOMIC_SPECIES
  Zr      91.22      Zr.pbe-spn-kjpaw_psl.1.0.0.UPF
  Te      127.60     Te.pbe-n-kjpaw_psl.1.0.0.UPF
ATOMIC_POSITIONS {angstrom}
Zr 0.0000000000 5.0033781834 3.4625232903 
Zr 2.0244523166 2.9729771268 10.3875698700 
Te 2.0244523166 2.7510109752 3.4625232903 
Te 0.0000000000 5.2253443350 10.3875698700 
Te 2.0244523166 6.6553052757 2.0681790746 
Te 0.0000000000 1.3210500346 11.7819140848 
Te 2.0244523166 6.6553052757 4.8568675051 
Te 0.0000000000 1.3210500346 8.9932256543 
Te 0.0000000000 3.3797759541 5.9817263401 
Te 2.0244523166 4.5965793561 7.8683668193 
Te 0.0000000000 3.3797759541 0.9433202396 
Te 2.0244523166 4.5965793561 12.9067729198 
K_POINTS {automatic}
  8 8 4  0 0 0
CELL_PARAMETERS {angstrom}
2.02445231251649 -7.97635530939545 0.00000000000000
2.02445231251649 7.97635530939545 0.00000000000000
0.00000000000000 0.00000000000000 13.85009315609958
