&CONTROL
  calculation='scf'
  pseudo_dir = 'pseudo',
  disk_io = "none"
  tstress = .true.
  tprnfor = .true.
 /
&SYSTEM
  ibrav=0,
  nat=12,
  ntyp=2,
  ecutwfc=80,
  ecutrho=800,
  occupations='smearing',
  smearing='mp',
  degauss=0.003,
 /
&ELECTRONS
  conv_thr =  1d-10
  mixing_beta = 0.7
 /
ATOMIC_SPECIES
  Zr      91.22      Zr.pbe-spn-kjpaw_psl.1.0.0.UPF
  Te      127.60     Te.pbe-n-kjpaw_psl.1.0.0.UPF
ATOMIC_POSITIONS {angstrom}
Zr 0.0000000000 5.0161271353 3.4625232903 
Zr 2.0244523166 2.9602281749 10.3875698700 
Te 2.0244523166 2.7512671822 3.4625232903 
Te 0.0000000000 5.2250881280 10.3875698700 
Te 2.0244523166 6.6495019681 2.0642177411 
Te 0.0000000000 1.3268533421 11.7858754182 
Te 2.0244523166 6.6495019681 4.8608288385 
Te 0.0000000000 1.3268533421 8.9892643208 
Te 0.0000000000 3.3574418303 5.9604179830 
Te 2.0244523166 4.6189134800 7.8896751764 
Te 0.0000000000 3.3574418303 0.9646285967 
Te 2.0244523166 4.6189134800 12.8854645627 
K_POINTS {automatic}
  8 8 4  0 0 0
CELL_PARAMETERS {angstrom}
2.02445231251649 -7.97635530939545 0.00000000000000
2.02445231251649 7.97635530939545 0.00000000000000
0.00000000000000 0.00000000000000 13.85009315609958
