&CONTROL
  calculation='scf'
  pseudo_dir = 'pseudo',
  disk_io = "none"
  tstress = .true.
  tprnfor = .true.
 /
&SYSTEM
  ibrav=0,
  nat=12,
  ntyp=2,
  ecutwfc=80,
  ecutrho=800,
  occupations='smearing',
  smearing='mp',
  degauss=0.003,
 /
&ELECTRONS
  conv_thr =  1d-10
  mixing_beta = 0.7
 /
ATOMIC_SPECIES
  Zr      91.22      Zr.pbe-spn-kjpaw_psl.1.0.0.UPF
  Te      127.60     Te.pbe-n-kjpaw_psl.1.0.0.UPF
ATOMIC_POSITIONS {angstrom}
Zr 0.0000000000 4.9922228505 3.4625232903 
Zr 2.0244523166 2.9841324597 10.3875698700 
Te 2.0244523166 2.7507867941 3.4625232903 
Te 0.0000000000 5.2255685161 10.3875698700 
Te 2.0244523166 6.6603831698 2.0716452413 
Te 0.0000000000 1.3159721404 11.7784479181 
Te 2.0244523166 6.6603831698 4.8534013384 
Te 0.0000000000 1.3159721404 8.9966918210 
Te 0.0000000000 3.3993183125 6.0003711526 
Te 2.0244523166 4.5770369978 7.8497220068 
Te 0.0000000000 3.3993183125 0.9246754271 
Te 2.0244523166 4.5770369978 12.9254177323 
K_POINTS {automatic}
  8 8 4  0 0 0
CELL_PARAMETERS {angstrom}
2.02445231251649 -7.97635530939545 0.00000000000000
2.02445231251649 7.97635530939545 0.00000000000000
0.00000000000000 0.00000000000000 13.85009315609958
