&CONTROL
  calculation='scf'
  pseudo_dir = 'pseudo',
  disk_io = "none"
  tstress = .true.
  tprnfor = .true.
 /
&SYSTEM
  ibrav=0,
  nat=12,
  ntyp=2,
  ecutwfc=80,
  ecutrho=800,
  occupations='smearing',
  smearing='mp',
  degauss=0.003,
 /
&ELECTRONS
  conv_thr =  1d-10
  mixing_beta = 0.7
 /
ATOMIC_SPECIES
  Zr      91.22      Zr.pbe-spn-kjpaw_psl.1.0.0.UPF
  Te      127.60     Te.pbe-n-kjpaw_psl.1.0.0.UPF
ATOMIC_POSITIONS {angstrom}
Zr 0.0000000000 5.0304697061 3.4625232903 
Zr 2.0244523166 2.9458856041 10.3875698700 
Te 2.0244523166 2.7515554151 3.4625232903 
Te 0.0000000000 5.2247998951 10.3875698700 
Te 2.0244523166 6.6429732471 2.0597612410 
Te 0.0000000000 1.3333820631 11.7903319183 
Te 2.0244523166 6.6429732471 4.8652853386 
Te 0.0000000000 1.3333820631 8.9848078207 
Te 0.0000000000 3.3323159409 5.9364460813 
Te 2.0244523166 4.6440393693 7.9136470781 
Te 0.0000000000 3.3323159409 0.9886004984 
Te 2.0244523166 4.6440393693 12.8614926610 
K_POINTS {automatic}
  8 8 4  0 0 0
CELL_PARAMETERS {angstrom}
2.02445231251649 -7.97635530939545 0.00000000000000
2.02445231251649 7.97635530939545 0.00000000000000
0.00000000000000 0.00000000000000 13.85009315609958
