&CONTROL
  calculation='scf'
  pseudo_dir = 'pseudo',
  disk_io = "none"
  tstress = .true.
  tprnfor = .true.
 /
&SYSTEM
  ibrav=0,
  nat=12,
  ntyp=2,
  ecutwfc=80,
  ecutrho=800,
  occupations='smearing',
  smearing='mp',
  degauss=0.003,
 /
&ELECTRONS
  conv_thr =  1d-10
  mixing_beta = 0.7
 /
ATOMIC_SPECIES
  Zr      91.22      Zr.pbe-spn-kjpaw_psl.1.0.0.UPF
  Te      127.60     Te.pbe-n-kjpaw_psl.1.0.0.UPF
ATOMIC_POSITIONS {angstrom}
Zr 0.0000000000 5.0400314201 3.4625232903 
Zr 2.0244523166 2.9363238902 10.3875698700 
Te 2.0244523166 2.7517475703 3.4625232903 
Te 0.0000000000 5.2246077399 10.3875698700 
Te 2.0244523166 6.6386207664 2.0567902410 
Te 0.0000000000 1.3377345438 11.7933029184 
Te 2.0244523166 6.6386207664 4.8682563387 
Te 0.0000000000 1.3377345438 8.9818368207 
Te 0.0000000000 3.3155653480 5.9204648135 
Te 2.0244523166 4.6607899622 7.9296283459 
Te 0.0000000000 3.3155653480 1.0045817662 
Te 2.0244523166 4.6607899622 12.8455113932 
K_POINTS {automatic}
  8 8 4  0 0 0
CELL_PARAMETERS {angstrom}
2.02445231251649 -7.97635530939545 0.00000000000000
2.02445231251649 7.97635530939545 0.00000000000000
0.00000000000000 0.00000000000000 13.85009315609958
